*SPEF "IEEE 1481-1998"
*DESIGN "uart_top"
*DATE "Mon Jun 29 17:37:46 2026"
*VENDOR "Cadence Design Systems, Inc."
*PROGRAM "Innovus"
*VERSION "21.15-s110_1"
*DESIGN_FLOW "COUPLING C" "PIN_CAP NONE" "NAME_SCOPE LOCAL"
*DIVIDER /
*DELIMITER :
*BUS_DELIMITER []
*T_UNIT 1 NS
*C_UNIT 1 PF
*R_UNIT 1 OHM
*L_UNIT 1 HENRY

// MMMC spef file for corner 'rc_best'

*NAME_MAP

*1 clk
*2 rst_n
*3 tx_start
*4 tx_data[7]
*5 tx_data[6]
*6 tx_data[5]
*7 tx_data[4]
*8 tx_data[3]
*9 tx_data[2]
*10 tx_data[1]
*11 tx_data[0]
*12 tx_busy
*13 rx_data[7]
*14 rx_data[6]
*15 rx_data[5]
*16 rx_data[4]
*17 rx_data[3]
*18 rx_data[2]
*19 rx_data[1]
*20 rx_data[0]
*21 rx_done
*22 parity_error
*23 framing_error
*24 tx_serial
*25 rx_serial
*26 FE_OFN207_n_165
*27 FE_OFN206_n_189
*28 FE_OFN205_n_59
*29 FE_OFN204_n_111
*30 FE_OFN203_n_177
*31 FE_OFN202_n_126
*32 FE_OFN201_n_362
*33 FE_OFN200_n_155
*34 FE_OFN199_n_190
*35 FE_OFN198_n_182
*36 FE_OFN197_n_210
*37 FE_OFN196_n_176
*38 FE_OFN195_n_117
*39 FE_OFN194_n_127
*40 FE_OFN191_u_uart_rx_state_1
*41 FE_OFN190_n_183
*42 FE_OFN189_n_183
*43 FE_OFN188_u_baud_gen_count_8
*44 FE_OFN187_u_uart_tx_state_2
*45 FE_OFN185_n_107
*46 FE_OFN183_u_uart_rx_bit_idx_2
*47 FE_OFN139_n_120
*48 FE_OFN182_n_201
*49 FE_OFN181_baud_tick_16x
*50 FE_OFN180_n_188
*51 FE_OFN179_n_188
*52 FE_OFN177_n_175
*53 FE_OFN176_n_149
*54 FE_OFN175_n_122
*55 FE_OFN174_n_0
*56 FE_OFN173_u_uart_tx_data_reg_6
*57 FE_OFN172_n_87
*58 FE_OFN171_u_uart_rx_bit_idx_0
*59 FE_OFN170_n_369
*60 FE_OFN169_n_197
*61 FE_OFN168_n_147
*62 FE_OFN167_u_uart_tx_tick_cnt_1
*63 FE_OFN166_n_25
*64 FE_OFN164_n_170
*65 FE_OFN163_n_20
*66 FE_OFN162_n_31
*67 FE_OFN161_n_200
*68 FE_OFN159_n_47
*69 FE_OFN157_u_uart_tx_data_reg_0
*70 FE_OFN155_u_uart_rx_tick_cnt_1
*71 FE_OFN154_n
*72 FE_OFN131_n_208
*73 FE_OFN128_n_188
*74 FE_OFN127_n_188
*75 FE_OFN123_n_164
*76 FE_OFN119_n_207
*77 FE_OFN118_n_181
*78 FE_OFN117_n_179
*79 FE_OFN116_n_179
*80 FE_OFN114_n_154
*81 FE_OFN113_n_142
*82 FE_OFN112_n_140
*83 FE_OFN111_n_121
*84 FE_OFN110_n_120
*85 FE_OFN107_n_103
*86 FE_OFN106_n_204
*87 FE_OFN104_n_161
*88 FE_OFN103_n_158
*89 FE_OFN102_n_150
*90 FE_OFN101_n_138
*91 FE_OFN100_n_132
*92 FE_OFN99_n_125
*93 FE_OFN98_n_118
*94 FE_OFN97_n_118
*95 FE_OFN96_n_113
*96 FE_OFN95_n_100
*97 FE_OFN94_n_82
*98 FE_OFN92_n_191
*99 FE_OFN91_n_177
*100 FE_OFN90_n_174
*101 FE_OFN89_n_157
*102 FE_OFN86_n_108
*103 FE_OFN85_n_99
*104 FE_OFN84_n_94
*105 FE_OFN81_n_359
*106 FE_OFN80_n_199
*107 FE_OFN79_n_192
*108 FE_OFN77_n_172
*109 FE_OFN76_n_168
*110 FE_OFN75_n_153
*111 FE_OFN74_n_110
*112 FE_OFN73_n_96
*113 FE_OFN72_n_89
*114 FE_OFN70_n_66
*115 FE_OFN69_n_63
*116 FE_OFN68_n_54
*117 FE_OFN67_n_50
*118 FE_OFN66_n_49
*119 FE_OFN64_n_360
*120 FE_OFN63_n_148
*121 FE_OFN62_n_127
*122 FE_OFN61_n_83
*123 FE_OFN60_n_73
*124 FE_OFN59_n_68
*125 FE_OFN58_n_58
*126 FE_OFN57_n_57
*127 FE_OFN56_n_55
*128 FE_OFN55_n_33
*129 FE_OFN54_n_22
*130 FE_OFN53_n_18
*131 FE_OFN52_n_14
*132 FE_OFN50_u_uart_rx_rx_sync_ff2
*133 FE_OFN49_u_uart_rx_parity_calc
*134 FE_OFN48_n_337
*135 FE_OFN47_n_126
*136 FE_OFN46_n_122
*137 FE_OFN45_n_87
*138 FE_OFN44_n_32
*139 FE_OFN43_n_25
*140 FE_OFN42_n_24
*141 FE_OFN41_n_9
*142 FE_OFN39_n_5
*143 FE_OFN38_n_2
*144 FE_OFN37_n_1
*145 FE_OFN36_baud_tick_16x
*146 FE_OFN34_u_uart_tx_data_reg_3
*147 FE_OFN32_u_uart_tx_tick_cnt_0
*148 FE_OFN31_u_uart_tx_tick_cnt_1
*149 FE_OFN30_u_uart_tx_tick_cnt_3
*150 FE_OFN29_u_uart_tx_bit_idx_0
*151 FE_OFN28_u_uart_tx_bit_idx_1
*152 FE_OFN27_u_uart_tx_bit_idx_2
*153 FE_OFN26_u_uart_rx_data_reg_0
*154 FE_OFN25_u_uart_rx_data_reg_1
*155 FE_OFN24_u_uart_rx_data_reg_2
*156 FE_OFN23_u_uart_rx_data_reg_3
*157 FE_OFN22_u_uart_rx_data_reg_4
*158 FE_OFN21_u_uart_rx_data_reg_5
*159 FE_OFN20_u_uart_rx_data_reg_6
*160 FE_OFN19_u_uart_rx_data_reg_7
*161 FE_OFN18_u_uart_tx_state_0
*162 FE_OFN17_u_uart_tx_state_1
*163 FE_OFN16_u_uart_tx_state_2
*164 FE_OFN15_u_uart_rx_tick_cnt_0
*165 FE_OFN14_u_uart_rx_tick_cnt_1
*166 FE_OFN13_u_uart_rx_tick_cnt_2
*167 FE_OFN12_u_uart_rx_tick_cnt_3
*168 FE_OFN11_u_uart_rx_bit_idx_0
*169 FE_OFN10_u_uart_rx_bit_idx_1
*170 FE_OFN9_u_uart_rx_bit_idx_2
*171 FE_OFN8_u_uart_rx_state_0
*172 FE_OFN7_u_uart_rx_state_1
*173 FE_OFN6_u_uart_rx_state_2
*174 FE_OFN5_u_baud_gen_count_0
*175 FE_OFN4_u_baud_gen_count_1
*176 FE_OFN3_u_baud_gen_count_3
*177 FE_OFN2_u_baud_gen_count_4
*178 FE_OFN1_u_baud_gen_count_5
*179 FE_OFN0_u_baud_gen_count_7
*180 u_baud_gen_count[8]
*181 u_baud_gen_count[7]
*182 u_baud_gen_count[6]
*183 u_baud_gen_count[5]
*184 u_baud_gen_count[4]
*185 u_baud_gen_count[3]
*186 u_baud_gen_count[2]
*187 u_baud_gen_count[1]
*188 u_baud_gen_count[0]
*189 u_uart_rx_state[2]
*190 u_uart_rx_state[1]
*191 u_uart_rx_state[0]
*192 u_uart_rx_bit_idx[2]
*193 u_uart_rx_bit_idx[1]
*194 u_uart_rx_bit_idx[0]
*195 u_uart_rx_tick_cnt[3]
*196 u_uart_rx_tick_cnt[2]
*197 u_uart_rx_tick_cnt[1]
*198 u_uart_rx_tick_cnt[0]
*199 u_uart_tx_state[2]
*200 u_uart_tx_state[1]
*201 u_uart_tx_state[0]
*202 u_uart_rx_data_reg[7]
*203 u_uart_rx_data_reg[6]
*204 u_uart_rx_data_reg[5]
*205 u_uart_rx_data_reg[4]
*206 u_uart_rx_data_reg[3]
*207 u_uart_rx_data_reg[2]
*208 u_uart_rx_data_reg[1]
*209 u_uart_rx_data_reg[0]
*210 u_uart_tx_bit_idx[2]
*211 u_uart_tx_bit_idx[1]
*212 u_uart_tx_bit_idx[0]
*213 u_uart_tx_tick_cnt[3]
*214 u_uart_tx_tick_cnt[2]
*215 u_uart_tx_tick_cnt[1]
*216 u_uart_tx_tick_cnt[0]
*217 u_uart_tx_data_reg[7]
*218 u_uart_tx_data_reg[6]
*219 u_uart_tx_data_reg[5]
*220 u_uart_tx_data_reg[4]
*221 u_uart_tx_data_reg[3]
*222 u_uart_tx_data_reg[2]
*223 u_uart_tx_data_reg[1]
*224 u_uart_tx_data_reg[0]
*225 baud_tick_16x
*226 n_0
*227 n_1
*228 n_2
*229 n_3
*230 n_5
*231 n_6
*232 n_7
*233 n_8
*234 n_9
*235 n_10
*236 n_12
*237 n_14
*238 n_15
*239 n_16
*240 n_17
*241 n_18
*242 n_19
*243 n_20
*244 n_21
*245 n_22
*246 n_23
*247 n_24
*248 n_25
*249 n_28
*250 n_29
*251 n_30
*252 n_31
*253 n_32
*254 n_33
*255 n_34
*256 n_35
*257 n_36
*258 n_37
*259 n_39
*260 n_40
*261 n_41
*262 n_43
*263 n_44
*264 n_45
*265 n_46
*266 n_47
*267 n_49
*268 n_50
*269 n_52
*270 n_54
*271 n_55
*272 n_56
*273 n_57
*274 n_58
*275 n_59
*276 n_60
*277 n_61
*278 n_63
*279 n_64
*280 n_65
*281 n_66
*282 n_68
*283 n_69
*284 n_70
*285 n_71
*286 n_72
*287 n_73
*288 n_75
*289 n_76
*290 n_77
*291 n_78
*292 n_79
*293 n_80
*294 n_82
*295 n_83
*296 n_84
*297 n_85
*298 n_86
*299 n_87
*300 n_88
*301 n_89
*302 n_90
*303 n_92
*304 n_93
*305 n_94
*306 n_95
*307 n_96
*308 n_97
*309 n_98
*310 n_99
*311 n_100
*312 n_101
*313 n_102
*314 n_103
*315 n_104
*316 n_105
*317 n_106
*318 n_107
*319 n_108
*320 n_109
*321 n_110
*322 n_111
*323 n_112
*324 n_113
*325 n_115
*326 n_117
*327 n_118
*328 n_119
*329 n_120
*330 n_121
*331 n_122
*332 n_123
*333 n_124
*334 n_125
*335 n_126
*336 n_127
*337 n_128
*338 n_130
*339 n_132
*340 n_133
*341 n_134
*342 n_135
*343 n_136
*344 n_137
*345 n_138
*346 n_139
*347 n_140
*348 n_141
*349 n_142
*350 n_144
*351 n_145
*352 n_146
*353 n_147
*354 n_148
*355 n_149
*356 n_150
*357 n_152
*358 n_153
*359 n_154
*360 n_155
*361 n_156
*362 n_157
*363 n_158
*364 n_159
*365 n_160
*366 n_161
*367 n_163
*368 n_164
*369 n_165
*370 n_166
*371 n_167
*372 n_168
*373 n_169
*374 n_170
*375 n_171
*376 n_172
*377 n_174
*378 n_175
*379 n_176
*380 n_177
*381 n_178
*382 n_179
*383 n_180
*384 n_181
*385 n_182
*386 n_183
*387 n_184
*388 n_185
*389 n_186
*390 n_188
*391 n_189
*392 n_190
*393 n_191
*394 n_192
*395 n_193
*396 n_194
*397 n_195
*398 n_196
*399 n_197
*400 n_198
*401 n_199
*402 n_200
*403 n_201
*404 n_202
*405 n_203
*406 n_204
*407 n_205
*408 n_207
*409 n_208
*410 n_210
*411 n_212
*412 n_213
*413 n_337
*414 n_357
*415 n_358
*416 n_359
*417 n_360
*418 n_361
*419 n_362
*420 n_363
*421 n_369
*422 u_uart_rx_parity_calc
*423 u_uart_rx_rx_sync_ff1
*424 u_uart_rx_rx_sync_ff2
*425 u_uart_tx_parity_bit
*426 FE_OFC185_n_165
*427 FE_OFC184_n_189
*428 FE_OFC183_n_59
*429 FE_OFC182_n_111
*430 FE_OFC181_n_177
*431 FE_OFC180_n_126
*432 FE_OFC179_n_362
*433 FE_OFC178_n_155
*434 FE_OFC177_n_190
*435 FE_OFC176_n_182
*436 FE_OFC175_n_210
*437 FE_OFC174_n_176
*438 FE_OFC173_n_117
*439 FE_OFC172_n_127
*440 FE_OFC169_u_uart_rx_state_1
*441 FE_OFC168_n_183
*442 FE_OFC167_n_183
*443 FE_OFC166_u_baud_gen_count_8
*444 FE_OFC165_u_uart_tx_state_2
*445 FE_OFC163_n_107
*446 FE_OFC161_u_uart_rx_bit_idx_2
*447 FE_OFC139_n_120
*448 FE_OFC160_n_201
*449 FE_OFC159_baud_tick_16x
*450 FE_OFC158_n_188
*451 FE_OFC157_n_188
*452 FE_OFC155_n_175
*453 FE_OFC154_n_149
*454 FE_OFC153_n_122
*455 FE_OFC152_n_0
*456 FE_OFC151_u_uart_tx_data_reg_6
*457 FE_OFC150_n_87
*458 FE_OFC149_u_uart_rx_bit_idx_0
*459 FE_OFC148_n_369
*460 FE_OFC147_n_197
*461 FE_OFC146_n_147
*462 FE_OFC145_u_uart_tx_tick_cnt_1
*463 FE_OFC144_n_25
*464 FE_OFC142_n_170
*465 FE_OFC141_n_20
*466 FE_OFC140_n_31
*467 FE_OFC139_n_200
*468 FE_OFC137_n_47
*469 FE_OFC135_u_uart_tx_data_reg_0
*470 FE_OFC133_u_uart_rx_tick_cnt_1
*471 FE_OFC132_n_153
*472 FE_OFC131_n_208
*473 FE_OFC128_n_188
*474 FE_OFC127_n_188
*475 FE_OFC123_n_164
*476 FE_OFC119_n_207
*477 FE_OFC118_n_181
*478 FE_OFC117_n_179
*479 FE_OFC116_n_179
*480 FE_OFC114_n_154
*481 FE_OFC113_n_142
*482 FE_OFC112_n_140
*483 FE_OFC111_n_121
*484 FE_OFC110_n_120
*485 FE_OFC107_n_103
*486 FE_OFC106_n_204
*487 FE_OFC104_n_161
*488 FE_OFC103_n_158
*489 FE_OFC102_n_150
*490 FE_OFC101_n_138
*491 FE_OFC100_n_132
*492 FE_OFC99_n_125
*493 FE_OFC98_n_118
*494 FE_OFC97_n_118
*495 FE_OFC96_n_113
*496 FE_OFC95_n_100
*497 FE_OFC94_n_82
*498 FE_OFC92_n_191
*499 FE_OFC91_n_177
*500 FE_OFC90_n_174
*501 FE_OFC89_n_157
*502 FE_OFC86_n_108
*503 FE_OFC85_n_99
*504 FE_OFC84_n_94
*505 FE_OFC81_n_359
*506 FE_OFC80_n_199
*507 FE_OFC79_n_192
*508 FE_OFC77_n_172
*509 FE_OFC76_n_168
*510 FE_OFC75_n_153
*511 FE_OFC74_n_110
*512 FE_OFC73_n_96
*513 FE_OFC72_n_89
*514 FE_OFC70_n_66
*515 FE_OFC69_n_63
*516 FE_OFC68_n_54
*517 FE_OFC67_n_50
*518 FE_OFC66_n_49
*519 FE_OFC64_n_360
*520 FE_OFC63_n_148
*521 FE_OFC62_n_127
*522 FE_OFC61_n_83
*523 FE_OFC60_n_73
*524 FE_OFC59_n_68
*525 FE_OFC58_n_58
*526 FE_OFC57_n_57
*527 FE_OFC56_n_55
*528 FE_OFC55_n_33
*529 FE_OFC54_n_22
*530 FE_OFC53_n_18
*531 FE_OFC52_n_14
*532 FE_OFC50_u_uart_rx_rx_sync_ff2
*533 FE_OFC49_u_uart_rx_parity_calc
*534 FE_OFC48_n_337
*535 FE_OFC47_n_126
*536 FE_OFC46_n_122
*537 FE_OFC45_n_87
*538 FE_OFC44_n_32
*539 FE_OFC43_n_25
*540 FE_OFC42_n_24
*541 FE_OFC41_n_9
*542 FE_OFC39_n_5
*543 FE_OFC38_n_2
*544 FE_OFC37_n_1
*545 FE_OFC36_baud_tick_16x
*546 FE_OFC34_u_uart_tx_data_reg_3
*547 FE_OFC32_u_uart_tx_tick_cnt_0
*548 FE_OFC31_u_uart_tx_tick_cnt_1
*549 FE_OFC30_u_uart_tx_tick_cnt_3
*550 FE_OFC29_u_uart_tx_bit_idx_0
*551 FE_OFC28_u_uart_tx_bit_idx_1
*552 FE_OFC27_u_uart_tx_bit_idx_2
*553 FE_OFC26_u_uart_rx_data_reg_0
*554 FE_OFC25_u_uart_rx_data_reg_1
*555 FE_OFC24_u_uart_rx_data_reg_2
*556 FE_OFC23_u_uart_rx_data_reg_3
*557 FE_OFC22_u_uart_rx_data_reg_4
*558 FE_OFC21_u_uart_rx_data_reg_5
*559 FE_OFC20_u_uart_rx_data_reg_6
*560 FE_OFC19_u_uart_rx_data_reg_7
*561 FE_OFC18_u_uart_tx_state_0
*562 FE_OFC17_u_uart_tx_state_1
*563 FE_OFC16_u_uart_tx_state_2
*564 FE_OFC15_u_uart_rx_tick_cnt_0
*565 FE_OFC14_u_uart_rx_tick_cnt_1
*566 FE_OFC13_u_uart_rx_tick_cnt_2
*567 FE_OFC12_u_uart_rx_tick_cnt_3
*568 FE_OFC11_u_uart_rx_bit_idx_0
*569 FE_OFC10_u_uart_rx_bit_idx_1
*570 FE_OFC9_u_uart_rx_bit_idx_2
*571 FE_OFC8_u_uart_rx_state_0
*572 FE_OFC7_u_uart_rx_state_1
*573 FE_OFC6_u_uart_rx_state_2
*574 FE_OFC5_u_baud_gen_count_0
*575 FE_OFC4_u_baud_gen_count_1
*576 FE_OFC3_u_baud_gen_count_3
*577 FE_OFC2_u_baud_gen_count_4
*578 FE_OFC1_u_baud_gen_count_5
*579 FE_OFC0_u_baud_gen_count_7
*580 FE_RC_1_0
*581 FE_RC_0_0
*582 u_uart_tx_tx_serial_reg
*583 g5194
*584 u_baud_gen_count_reg\[8\]
*585 g5195__2398
*586 u_uart_rx_state_reg\[0\]
*587 g5178__5107
*588 u_uart_rx_parity_error_reg
*589 g5208__4319
*590 u_baud_gen_count_reg\[7\]
*591 g5202__8428
*592 u_uart_rx_tick_cnt_reg\[2\]
*593 g5209__6783
*594 u_uart_tx_state_reg\[0\]
*595 u_uart_tx_state_reg\[2\]
*596 u_uart_tx_state_reg\[1\]
*597 g5179__3680
*598 g5253__1617
*599 g5225__2802
*600 u_uart_rx_data_reg_reg\[2\]
*601 u_uart_rx_state_reg\[1\]
*602 u_uart_tx_parity_bit_reg
*603 u_uart_rx_data_reg_reg\[6\]
*604 u_uart_rx_data_reg_reg\[0\]
*605 u_uart_tx_bit_idx_reg\[0\]
*606 g5184__1705
*607 g5221__5122
*608 g5246__8246
*609 g5182__7098
*610 g5258__6131
*611 u_uart_rx_data_reg_reg\[3\]
*612 g5247__1881
*613 u_uart_tx_tx_busy_reg
*614 u_uart_rx_data_reg_reg\[4\]
*615 u_uart_tx_tick_cnt_reg\[3\]
*616 u_uart_rx_data_reg_reg\[5\]
*617 u_uart_rx_data_reg_reg\[1\]
*618 u_uart_rx_tick_cnt_reg\[0\]
*619 g5219__5115
*620 g5250__7482
*621 g5252__4733
*622 g5255__6161
*623 g5249__9315
*624 g5222__9945
*625 g5281__2883
*626 g5286__2346
*627 u_uart_rx_rx_data_reg\[0\]
*628 u_uart_rx_rx_data_reg\[4\]
*629 u_uart_rx_parity_calc_reg
*630 u_uart_rx_rx_data_reg\[7\]
*631 u_uart_rx_rx_data_reg\[5\]
*632 u_uart_rx_rx_data_reg\[6\]
*633 u_uart_rx_rx_data_reg\[1\]
*634 u_uart_rx_rx_data_reg\[2\]
*635 u_uart_rx_rx_data_reg\[3\]
*636 u_baud_gen_count_reg\[5\]
*637 u_uart_tx_tick_cnt_reg\[0\]
*638 g5267__1666
*639 u_uart_rx_framing_error_reg
*640 g5187__7410
*641 g5259__6417
*642 g5260__5477
*643 g5254__5107
*644 g5270__6260
*645 g5223__4319
*646 g5284__8428
*647 g5279__5526
*648 g5183__6783
*649 u_uart_rx_rx_done_reg
*650 g5320__3680
*651 u_uart_rx_state_reg\[2\]
*652 g5248__2802
*653 g5316__1705
*654 g5298__5122
*655 g5193__8246
*656 g5292__7098
*657 g5272__6131
*658 g5251__1881
*659 g5280__5115
*660 g5282__7482
*661 g5285__4733
*662 g5287__6161
*663 g5289__9315
*664 g5273__9945
*665 g5309__2883
*666 g5314__2346
*667 g5315__1666
*668 u_uart_tx_data_reg_reg\[4\]
*669 u_uart_tx_data_reg_reg\[5\]
*670 u_uart_tx_data_reg_reg\[2\]
*671 u_uart_tx_data_reg_reg\[1\]
*672 u_uart_tx_data_reg_reg\[7\]
*673 u_uart_tx_data_reg_reg\[3\]
*674 u_baud_gen_count_reg\[0\]
*675 u_baud_gen_count_reg\[4\]
*676 g5277__7410
*677 g5319__6417
*678 g5291__5477
*679 g5196__2398
*680 g5256__5107
*681 g5271__6260
*682 g5278__8428
*683 g5312__5526
*684 u_uart_tx_data_reg_reg\[6\]
*685 u_uart_tx_data_reg_reg\[0\]
*686 g5190__6783
*687 g5308__3680
*688 g5310__1617
*689 g5318__2802
*690 g5321__1705
*691 g5307__8246
*692 g5324
*693 g5296__7098
*694 g5326__6131
*695 g5293__1881
*696 g5335__5115
*697 g5328__7482
*698 g5332__4733
*699 g5342__6161
*700 g5336__9315
*701 g5306__9945
*702 g5327__2883
*703 g5331__1666
*704 g5330__7410
*705 u_baud_gen_baud_tick_16x_reg
*706 g5323__6417
*707 g5333__5477
*708 g5290__2398
*709 g5338__5107
*710 g5266__6260
*711 g5269__4319
*712 g5224__5526
*713 g5341__6783
*714 u_baud_gen_count_reg\[3\]
*715 g5203__3680
*716 g5337__1617
*717 g5325__2802
*718 g5344
*719 g5339__1705
*720 g5345
*721 g5354
*722 g5363
*723 g5361__8246
*724 g5346
*725 g5350__7098
*726 g5311__6131
*727 g5340__5115
*728 g5352__7482
*729 g5349__4733
*730 g5351__6161
*731 g5305__9315
*732 g5359__9945
*733 g5358__2346
*734 g5357__1666
*735 g5262__7410
*736 g5362__6417
*737 g5353__5477
*738 g5367__2398
*739 g5355__5107
*740 g5356__6260
*741 g5343
*742 g5377
*743 g5385__4319
*744 g5364__8428
*745 g5372__5526
*746 g5347__6783
*747 g5365__3680
*748 g5348__1617
*749 u_baud_gen_count_reg\[1\]
*750 g5329__2802
*751 g5368
*752 g5378
*753 g5283__1705
*754 g5374
*755 g5395__8246
*756 g5369__7098
*757 g5334__6131
*758 g5373__1881
*759 g5413__5115
*760 g5398__7482
*761 g5376
*762 g5388__4733
*763 g5389__6161
*764 g5392__9315
*765 g5397__9945
*766 g5370__2883
*767 g5383__2346
*768 g5384__1666
*769 g5386__7410
*770 g5393__6417
*771 g5387__5477
*772 g5390__2398
*773 g5402__6260
*774 g5400__4319
*775 g5396__8428
*776 g5408__5526
*777 g5407__6783
*778 g5409__3680
*779 u_uart_rx_rx_sync_ff2_reg
*780 g5399__1617
*781 g5404__2802
*782 g5401__1705
*783 g5405__5122
*784 g5406__8246
*785 g5410
*786 g5424__7098
*787 g5417__6131
*788 g5428__1881
*789 g5426__5115
*790 g5423__7482
*791 g5427__4733
*792 g5414__6161
*793 g5422__9315
*794 g5411__9945
*795 u_uart_rx_rx_sync_ff1_reg
*796 g5425__2883
*797 g5415__2346
*798 g5416__1666
*799 g5438
*800 g5440
*801 g5443
*802 g5448
*803 g5453
*804 g5437
*805 drc_bufs5579
*806 drc_bufs5606
*807 u_uart_rx_bit_idx_reg\[2\]
*808 u_uart_rx_bit_idx_reg\[1\]
*809 u_uart_rx_tick_cnt_reg\[3\]
*810 u_uart_tx_tick_cnt_reg\[1\]
*811 u_uart_tx_bit_idx_reg\[1\]
*812 u_uart_tx_bit_idx_reg\[2\]
*813 u_uart_rx_tick_cnt_reg\[1\]
*814 u_baud_gen_count_reg\[2\]
*815 u_baud_gen_count_reg\[6\]
*816 u_uart_tx_tick_cnt_reg\[2\]
*817 u_uart_rx_bit_idx_reg\[0\]
*818 u_uart_rx_data_reg_reg\[7\]
*819 g2
*820 g5642
*821 g5643
*822 g5644
*823 g5645
*824 g5646
*825 g5647
*826 g5650


*PORTS

*1 I *C 0 0
*2 I *C 0 0
*3 I *C 0 0
*4 I *C 0 0
*5 I *C 0 0
*6 I *C 0 0
*7 I *C 0 0
*8 I *C 0 0
*9 I *C 0 0
*10 I *C 0 0
*11 I *C 0 0
*12 O *C 0 0
*13 O *C 0 0
*14 O *C 0 0
*15 O *C 0 0
*16 O *C 0 0
*17 O *C 0 0
*18 O *C 0 0
*19 O *C 0 0
*20 O *C 0 0
*21 O *C 0 0
*22 O *C 0 0
*23 O *C 0 0
*24 O *C 0 0
*25 I *C 0 0


*D_NET *1 0.082967

*CONN
*P *1 I *C 0 0 *L 0
*I *818:CK I *C 58.425 19.885 *L 0.00177 *D DFFRX1M
*I *817:CK I *C 44.485 11.275 *L 0.00178 *D DFFRX2M
*I *816:CK I *C 53.095 80.155 *L 0.00177 *D DFFRX1M
*I *815:CK I *C 66.625 74.415 *L 0.00177 *D DFFRX1M
*I *814:CK I *C 63.755 57.195 *L 0.00177 *D DFFRX1M
*I *813:CK I *C 23.575 51.455 *L 0.00177 *D DFFRX1M
*I *812:CK I *C 48.585 80.155 *L 0.00177 *D DFFRX1M
*I *811:CK I *C 46.125 65.805 *L 0.00177 *D DFFRX1M
*I *810:CK I *C 62.935 68.675 *L 0.00177 *D DFFRX1M
*I *809:CK I *C 49.405 31.365 *L 0.00178 *D DFFRX2M
*I *808:CK I *C 45.305 14.145 *L 0.00177 *D DFFRX1M
*I *807:CK I *C 34.235 14.145 *L 0.00178 *D DFFRX2M
*I *795:CK I *C 58.835 54.325 *L 0.00209 *D DFFSQX1M
*I *779:CK I *C 61.705 51.455 *L 0.00209 *D DFFSQX2M
*I *749:CK I *C 73.185 48.175 *L 0.00138 *D DFFRQX2M
*I *714:CK I *C 74.005 65.395 *L 0.00138 *D DFFRQX2M
*I *705:CK I *C 72.365 53.915 *L 0.00138 *D DFFRQX2M
*I *685:CK I *C 22.755 57.195 *L 0.00167 *D SDFFRQX2M
*I *684:CK I *C 17.425 71.545 *L 0.00167 *D SDFFRQX2M
*I *675:CK I *C 69.495 80.565 *L 0.00138 *D DFFRQX2M
*I *674:CK I *C 66.215 51.865 *L 0.00138 *D DFFRQX2M
*I *673:CK I *C 16.195 77.285 *L 0.00167 *D SDFFRQX2M
*I *672:CK I *C 27.675 68.675 *L 0.00167 *D SDFFRQX2M
*I *671:CK I *C 28.495 62.935 *L 0.00167 *D SDFFRQX2M
*I *670:CK I *C 19.885 80.155 *L 0.00167 *D SDFFRQX2M
*I *669:CK I *C 16.195 74.415 *L 0.00167 *D SDFFRQX2M
*I *668:CK I *C 21.115 83.025 *L 0.00167 *D SDFFRQX2M
*I *651:CK I *C 18.245 34.645 *L 0.00138 *D DFFRQX2M
*I *649:CK I *C 47.765 36.695 *L 0.00138 *D DFFRQX2M
*I *639:CK I *C 48.995 46.125 *L 0.00138 *D DFFRQX2M
*I *637:CK I *C 51.865 77.285 *L 0.00167 *D SDFFRQX2M
*I *636:CK I *C 77.695 74.825 *L 0.00138 *D DFFRQX2M
*I *635:CK I *C 63.755 39.975 *L 0.00167 *D SDFFRQX2M
*I *634:CK I *C 72.365 14.145 *L 0.00167 *D SDFFRQX2M
*I *633:CK I *C 72.365 42.845 *L 0.00167 *D SDFFRQX2M
*I *632:CK I *C 73.185 39.975 *L 0.00167 *D SDFFRQX2M
*I *631:CK I *C 52.275 39.975 *L 0.00167 *D SDFFRQX2M
*I *630:CK I *C 55.145 14.145 *L 0.00167 *D SDFFRQX2M
*I *629:CK I *C 44.485 42.845 *L 0.00167 *D SDFFRQX2M
*I *628:CK I *C 76.465 17.015 *L 0.00167 *D SDFFRQX2M
*I *627:CK I *C 62.935 17.015 *L 0.00167 *D SDFFRQX2M
*I *618:CK I *C 28.085 51.865 *L 0.00138 *D DFFRQX2M
*I *617:CK I *C 78.515 36.695 *L 0.00138 *D DFFRQX2M
*I *616:CK I *C 53.505 36.695 *L 0.00138 *D DFFRQX2M
*I *615:CK I *C 60.065 65.395 *L 0.00138 *D DFFRQX2M
*I *614:CK I *C 75.235 25.215 *L 0.00138 *D DFFRQX2M
*I *613:CK I *C 58.425 60.065 *L 0.00167 *D SDFFRQX2M
*I *611:CK I *C 75.235 30.955 *L 0.00138 *D DFFRQX2M
*I *605:CK I *C 39.155 80.565 *L 0.00138 *D DFFRQX2M
*I *604:CK I *C 61.295 13.735 *L 0.00138 *D DFFRQX2M
*I *603:CK I *C 74.415 28.905 *L 0.00138 *D DFFRQX2M
*I *602:CK I *C 21.115 60.065 *L 0.00167 *D SDFFRQX2M
*I *601:CK I *C 24.395 13.735 *L 0.00138 *D DFFRQX2M
*I *600:CK I *C 76.055 19.475 *L 0.00138 *D DFFRQX2M
*I *596:CK I *C 43.665 57.195 *L 0.00167 *D SDFFRQX2M
*I *595:CK I *C 49.405 48.585 *L 0.00167 *D SDFFRQX2M
*I *594:CK I *C 41.615 48.585 *L 0.00167 *D SDFFRQX2M
*I *592:CK I *C 19.885 40.385 *L 0.00138 *D DFFRQX2M
*I *590:CK I *C 78.105 71.135 *L 0.00138 *D DFFRQX2M
*I *588:CK I *C 63.755 48.175 *L 0.00138 *D DFFRQX2M
*I *586:CK I *C 17.015 28.905 *L 0.00138 *D DFFRQX2M
*I *584:CK I *C 61.705 71.135 *L 0.00138 *D DFFRQX2M
*I *582:CK I *C 36.695 54.325 *L 0.00209 *D DFFSQX1M

*CAP
1 *818:CK 5.6038e-05
2 *817:CK 5.6038e-05
3 *816:CK 5.6038e-05
4 *815:CK 5.6038e-05
5 *814:CK 5.6038e-05
6 *813:CK 5.6038e-05
7 *812:CK 5.6038e-05
8 *811:CK 5.6038e-05
9 *810:CK 5.6038e-05
10 *809:CK 5.6038e-05
11 *808:CK 5.6038e-05
12 *807:CK 5.6038e-05
13 *795:CK 5.6038e-05
14 *779:CK 5.6038e-05
15 *749:CK 5.6038e-05
16 *714:CK 5.6038e-05
17 *705:CK 5.6038e-05
18 *685:CK 5.6038e-05
19 *684:CK 5.6038e-05
20 *675:CK 5.6038e-05
21 *674:CK 5.6038e-05
22 *673:CK 5.6038e-05
23 *672:CK 5.6038e-05
24 *671:CK 5.6038e-05
25 *670:CK 5.6038e-05
26 *669:CK 5.6038e-05
27 *668:CK 5.6038e-05
28 *651:CK 5.6038e-05
29 *649:CK 5.6038e-05
30 *639:CK 5.6038e-05
31 *637:CK 5.6038e-05
32 *636:CK 5.6038e-05
33 *635:CK 5.6038e-05
34 *634:CK 5.6038e-05
35 *633:CK 5.6038e-05
36 *632:CK 5.6038e-05
37 *631:CK 5.6038e-05
38 *630:CK 5.6038e-05
39 *629:CK 5.6038e-05
40 *628:CK 5.6038e-05
41 *627:CK 5.6038e-05
42 *618:CK 5.6038e-05
43 *617:CK 5.6038e-05
44 *616:CK 5.6038e-05
45 *615:CK 5.6038e-05
46 *614:CK 5.6038e-05
47 *613:CK 5.6038e-05
48 *611:CK 5.6038e-05
49 *605:CK 5.6038e-05
50 *604:CK 5.6038e-05
51 *603:CK 5.6038e-05
52 *602:CK 5.6038e-05
53 *601:CK 5.6038e-05
54 *600:CK 5.6038e-05
55 *596:CK 5.6038e-05
56 *595:CK 5.6038e-05
57 *594:CK 5.6038e-05
58 *592:CK 5.6038e-05
59 *590:CK 5.6038e-05
60 *588:CK 5.6038e-05
61 *586:CK 5.6038e-05
62 *584:CK 5.6038e-05
63 *582:CK 5.6038e-05
64 *1:64 0.000254022
65 *1:65 0.000605517
66 *1:66 4.66405e-05
67 *1:67 4.66405e-05
68 *1:68 0.000881746
69 *1:69 0.000697208
70 *1:70 0.000876657
71 *1:71 0.000948569
72 *1:72 0.000167594
73 *1:73 0.00146552
74 *1:74 0.000739887
75 *1:75 0.000477769
76 *1:76 0.000131449
77 *1:77 0.000131449
78 *1:78 0.00019888
79 *1:79 0.00019888
80 *1:80 0.000301067
81 *1:81 0.000301067
82 *1:82 7.67704e-05
83 *1:83 7.67704e-05
84 *1:84 0.000793612
85 *1:85 4.70743e-05
86 *1:86 4.70743e-05
87 *1:87 0.000238494
88 *1:88 0.000238494
89 *1:89 0.00117819
90 *1:90 0.00112128
91 *1:91 0.000285858
92 *1:92 0.000285858
93 *1:93 0.00013411
94 *1:94 0.00013411
95 *1:95 0.000541267
96 *1:96 0.000739222
97 *1:97 0.000212181
98 *1:98 0.000420748
99 *1:99 0.000218889
100 *1:100 0.000426965
101 *1:101 0.000426965
102 *1:102 0.000678933
103 *1:103 0.000974015
104 *1:104 0.000527128
105 *1:105 0.000127517
106 *1:106 0.000345308
107 *1:107 4.86646e-05
108 *1:108 4.86646e-05
109 *1:109 0.000284296
110 *1:110 0.000284296
111 *1:111 0.00066488
112 *1:112 0.000672341
113 *1:113 0.000500207
114 *1:114 0.000471292
115 *1:115 9.84569e-05
116 *1:116 0.000446107
117 *1:117 0.000661671
118 *1:118 0.00104648
119 *1:119 0.00137886
120 *1:120 0.00110703
121 *1:121 0.00106802
122 *1:122 0.00104408
123 *1:123 0.000780021
124 *1:124 0.000354242
125 *1:125 0.000167594
126 *1:126 4.612e-05
127 *1:127 4.612e-05
128 *1:128 9.01871e-05
129 *1:129 0.000351814
130 *1:130 0.000351814
131 *1:131 0.000560843
132 *1:132 0.000560843
133 *1:133 0.000101377
134 *1:134 0.000101377
135 *1:135 0.000180924
136 *1:136 0.0011288
137 *1:137 0.00102473
138 *1:138 0.000108838
139 *1:139 0.000287188
140 *1:140 0.000287188
141 *1:141 0.000119392
142 *1:142 0.000119392
143 *1:143 4.66405e-05
144 *1:144 4.66405e-05
145 *1:145 0.000106785
146 *1:146 0.000106785
147 *1:147 7.11897e-05
148 *1:148 7.11897e-05
149 *1:149 0.000280711
150 *1:150 0.000280711
151 *1:151 4.86646e-05
152 *1:152 4.86646e-05
153 *1:153 0.000742605
154 *1:154 0.000583541
155 *1:155 0.000312662
156 *1:156 0.000312662
157 *1:157 5.33778e-05
158 *1:158 4.59176e-05
159 *1:159 0.000286812
160 *1:160 0.000286812
161 *1:161 0.00055185
162 *1:162 0.000710943
163 *1:163 4.66405e-05
164 *1:164 4.66405e-05
165 *1:165 0.000660341
166 *1:166 0.000410599
167 *1:167 6.18789e-05
168 *1:168 6.18789e-05
169 *1:169 7.56716e-05
170 *1:170 7.56716e-05
171 *1:171 0.000209376
172 *1:172 0.000209376
173 *1:173 0.000212904
174 *1:174 0.000473836
175 *1:175 0.000473836
176 *1:176 7.11897e-05
177 *1:177 0.000325096
178 *1:178 0.000517932
179 *1:179 0.000462213
180 *1:180 0.000356266
181 *1:181 0.000363756
182 *1:182 0.000236325
183 *1:183 0.000191709
184 *1:184 0.00035005
185 *1:185 5.02839e-05
186 *1:186 0.000217328
187 *1:187 7.11897e-05
188 *1:188 0.000136307
189 *1:189 0.000136307
190 *1:190 0.000156692
191 *1:191 0.000156692
192 *1:192 0.000568852
193 *1:257 4.58598e-05
194 *1:258 4.58598e-05
195 *1:259 4.58598e-05
196 *1:260 4.58598e-05
197 *1:261 4.58598e-05
198 *1:262 0.000457355
199 *1:263 0.000918266
200 *1:264 4.58598e-05
201 *1:265 4.59755e-05
202 *1:266 0.00132889
203 *1:267 0.00108823
204 *1:268 0.000454723
205 *1:269 0.000135469
206 *1:270 0.000454723
207 *1:271 0.000457962
208 *1:272 0.000916647
209 *1:273 0.000926362
210 *1:274 0.000451225
211 *1:275 0.000270648
212 *1:276 6.81247e-05
213 *1:277 0.000428613
214 *1:278 0.000421153
215 *1:279 4.58598e-05
216 *1:280 4.58598e-05
217 *1:281 4.58598e-05
218 *1:282 0.000135469
219 *1:283 4.58598e-05
220 *1:284 6.0144e-05
221 *1:285 4.45008e-05
222 *1:286 4.45008e-05
223 *1:287 5.34356e-05
224 *1:288 4.59755e-05
225 *1:289 4.59755e-05
226 *1:290 4.58598e-05
227 *1:291 4.58598e-05
228 *1:292 4.58598e-05
229 *1:293 4.58598e-05
230 *1:294 4.58598e-05
231 *1:295 4.58598e-05
232 *1:296 0.000316652
233 *1:297 0.000518077
234 *1:298 0.000384893
235 *1:299 0.000385731
236 *1:300 0.000360026
237 *1:301 0.000498039
238 *1:302 0.000523744
239 *1:303 0.000700938
240 *1:304 0.00138357
241 *1:305 0.000866103
242 *1:306 4.58598e-05
243 *1:307 4.58598e-05
244 *1:308 4.58598e-05
245 *1:309 4.58598e-05
246 *1:310 4.58598e-05
247 *1:311 4.58598e-05
248 *1:312 4.58598e-05
249 *1:313 4.58598e-05
250 *1:314 4.58598e-05
251 *1:315 4.58598e-05
252 *1:316 5.29441e-05
253 *1:317 4.54839e-05
254 *1:318 0.000159382
255 *1:319 0.000159382
256 *1:320 4.58598e-05
257 *1:321 4.58598e-05
258 *1:322 4.58598e-05
259 *1:323 0.000181849
260 *1:324 0.000360806
261 *1:325 4.58598e-05
262 *1:326 4.59755e-05
263 *1:327 0.000727077
264 *1:328 0.00118611
265 *1:329 0.000652273
266 *1:330 0.000191738
267 *1:331 0.000511947
268 *1:332 0.000535918
269 *1:333 0.000560004
270 *1:334 0.00035858
271 *1:335 4.58598e-05
272 *1:336 4.58598e-05
273 *1:337 4.58598e-05
274 *1:338 0.000285626
275 *1:339 0.000285626
276 *1:340 0.00189497
277 *1:341 4.58598e-05
278 *1:342 0.00189497
279 *1:343 4.58598e-05
280 *1:344 4.58598e-05
281 *1:345 4.58598e-05
282 *1:346 4.58598e-05
283 *1:347 4.58598e-05
284 *1:348 4.58598e-05
285 *1:349 4.58598e-05
286 *1:350 0.000371331
287 *1:351 4.58598e-05
288 *1:352 4.59755e-05
289 *1:353 0.000371331
290 *1:354 4.58598e-05
291 *1:355 6.04042e-05
292 *1:356 6.71994e-05
293 *1:357 5.97392e-05
294 *1:358 5.32911e-05
295 *1:359 4.58598e-05
296 *1:360 4.58598e-05
297 *1:361 0.00019807
298 *1:362 0.000341578
299 *1:363 0.000510212
300 *1:364 0.000366705
301 *1:365 4.58598e-05
302 *1:366 4.58598e-05
303 *1:367 4.58598e-05
304 *1:368 0.000356295
305 *1:369 0.000356295
306 *1:370 4.58598e-05
307 *1:371 4.58598e-05
308 *1:126 *362:21 3.43e-06
309 *1:127 *362:20 3.43e-06
310 *1:124 *362:21 8.03e-06
311 *1:122 *362:20 8.03e-06
312 *1:122 *362:21 4.71e-05
313 *1:123 *362:20 4.71e-05
314 *1:122 *362:20 6.551e-05
315 *1:123 *362:18 6.551e-05
316 *1:122 *362:18 0.00014017
317 *1:123 *362:17 0.00014017
318 *1:123 *362:18 1.903e-05
319 *1:128 *362:17 1.903e-05
320 *1:119 *362:16 4.418e-05
321 *1:120 *362:13 4.418e-05
322 *1:120 *362:16 4.393e-05
323 *1:121 *362:13 4.393e-05
324 *1:129 *362:15 1.438e-05
325 *1:130 *362:12 1.43800062e-05
326 *1:122 *287:5 6.47e-05
327 *1:123 *287:6 6.47e-05
328 *1:118 *287:5 2.949e-05
329 *1:119 *287:6 2.94900041e-05

*RES
1 *1:365 *614:CK 1.01979
2 *1:251 *1:365 0.204126
3 *1:366 *600:CK 1.01979
4 *1:252 *1:366 0.204126
5 *1:85 *1:365 1.01979
6 *1:367 *628:CK 1.01979
7 *1:253 *1:367 0.204126
8 *1:82 *1:366 1.01979
9 *1:250 *1:86 0.0673407
10 *1:86 *1:85 0.14352
11 *1:285 *601:CK 1.01979
12 *1:204 *1:285 0.0673407
13 *1:76 *1:367 1.01979
14 *1:83 *1:82 0.43056
15 *1:364 *1:86 1.01979
16 *1:285 *1:286 0.14352
17 *1:77 *1:76 0.574079
18 *1:363 *1:83 1.01979
19 *1:363 *1:364 2.00886
20 *1:79 *817:CK 1.01979
21 *1:292 *807:CK 1.01979
22 *1:209 *1:292 0.204126
23 *1:74 *1:286 1.01979
24 *1:362 *1:77 1.01979
25 *1:362 *1:363 0.861119
26 *1:79 *1:78 1.00464
27 *1:73 *1:292 1.01979
28 *1:74 *1:73 3.58758
29 *1:361 *1:362 1.00464
30 *1:307 *808:CK 1.01979
31 *1:216 *1:307 0.204126
32 *1:84 *1:78 1.01979
33 *1:73 *1:84 3.58758
34 *1:67 *604:CK 1.01979
35 *1:234 *1:67 0.0673407
36 *1:354 *634:CK 1.01979
37 *1:247 *1:354 0.204126
38 *1:72 *1:361 1.01979
39 *1:371 *617:CK 1.01979
40 *1:256 *1:371 0.204126
41 *1:322 *630:CK 1.01979
42 *1:227 *1:322 0.204126
43 *1:69 *1:307 1.01979
44 *1:84 *1:69 0.28704
45 *1:67 *1:66 0.14352
46 *1:70 *1:354 1.01979
47 *1:70 *1:72 0.861119
48 *1:370 *590:CK 1.01979
49 *1:255 *1:370 0.204126
50 *1:351 *675:CK 1.01979
51 *1:245 *1:351 0.204126
52 *1:100 *1:371 1.01979
53 *1:188 *611:CK 1.01979
54 *1:344 *627:CK 1.01979
55 *1:238 *1:344 0.204126
56 *1:68 *1:322 1.01979
57 *1:69 *1:68 3.30054
58 *1:71 *1:66 1.01979
59 *1:71 *1:70 3.87462
60 *1:147 *1:370 1.01979
61 *1:352 *1:351 1.01979
62 *1:246 *1:352 0.204126
63 *1:167 *636:CK 1.01979
64 *1:101 *1:100 2.00886
65 *1:357 *632:CK 1.01979
66 *1:189 *1:188 0.717599
67 *1:80 *1:344 1.01979
68 *1:68 *1:75 1.29168
69 *1:75 *1:71 1.14816
70 *1:343 *584:CK 1.01979
71 *1:237 *1:343 0.204126
72 *1:148 *1:147 0.28704
73 *1:353 *1:352 1.01979
74 *1:254 *1:168 0.0673407
75 *1:168 *1:167 0.14352
76 *1:314 *637:CK 1.01979
77 *1:223 *1:314 0.204126
78 *1:99 *1:101 1.01979
79 *1:356 *1:357 0.14352
80 *1:360 *603:CK 1.01979
81 *1:249 *1:360 0.204126
82 *1:187 *1:189 1.01979
83 *1:325 *818:CK 1.01979
84 *1:228 *1:325 0.204126
85 *1:81 *1:80 1.4352
86 *1:323 *1:75 1.01979
87 *1:151 *1:343 1.01979
88 *1:369 *1:148 1.01979
89 *1:350 *1:353 2.15238
90 *1:161 *1:168 1.01979
91 *1:158 *1:314 1.01979
92 *1:99 *1:98 1.00464
93 *1:98 *1:356 0.14352
94 *1:355 *633:CK 1.01979
95 *1:89 *1:360 1.01979
96 *1:89 *1:187 0.28704
97 *1:326 *1:325 1.01979
98 *1:229 *1:326 0.204126
99 *1:324 *1:81 1.01979
100 *1:323 *1:324 1.00464
101 *1:236 *1:152 0.0673407
102 *1:152 *1:151 0.14352
103 *1:368 *1:369 2.00886
104 *1:349 *815:CK 1.01979
105 *1:244 *1:349 0.204126
106 *1:162 *1:350 1.01979
107 *1:162 *1:161 3.15702
108 *1:158 *1:157 0.14352
109 *1:98 *1:192 1.14816
110 *1:355 *1:192 0.14352
111 *1:358 *749:CK 1.01979
112 *1:90 *1:89 5.73995
113 *1:327 *1:326 1.01979
114 *1:324 *1:327 1.00464
115 *1:342 *1:152 1.01979
116 *1:346 *635:CK 1.01979
117 *1:240 *1:346 0.204126
118 *1:359 *714:CK 1.01979
119 *1:248 *1:359 0.204126
120 *1:173 *1:368 1.01979
121 *1:345 *810:CK 1.01979
122 *1:239 *1:345 0.204126
123 *1:153 *1:349 1.01979
124 *1:153 *1:162 0.861119
125 *1:157 *1:316 0.14352
126 *1:192 *1:65 1.86534
127 *1:65 *1:358 0.14352
128 *1:328 *1:90 1.01979
129 *1:327 *1:328 3.15702
130 *1:340 *1:342 10.9058
131 *1:105 *1:346 1.01979
132 *1:321 *616:CK 1.01979
133 *1:226 *1:321 0.204126
134 *1:312 *809:CK 1.01979
135 *1:221 *1:312 0.204126
136 *1:337 *615:CK 1.01979
137 *1:233 *1:337 0.204126
138 *1:136 *1:359 1.01979
139 *1:136 *1:173 1.14816
140 *1:139 *1:345 1.01979
141 *1:154 *1:153 2.86998
142 *1:316 *1:317 0.14352
143 *1:190 *705:CK 1.01979
144 *1:65 *1:64 1.14816
145 *1:328 *1:329 3.87462
146 *1:106 *1:340 1.01979
147 *1:106 *1:105 0.574079
148 *1:309 *649:CK 1.01979
149 *1:218 *1:309 0.204126
150 *1:95 *1:321 1.01979
151 *1:91 *1:312 1.01979
152 *1:336 *613:CK 1.01979
153 *1:231 *1:336 0.204126
154 *1:137 *1:337 1.01979
155 *1:137 *1:136 4.87883
156 *1:140 *1:139 1.5783
157 *1:334 *1:154 1.01979
158 *1:318 *1:317 1.01979
159 *1:320 *816:CK 1.01979
160 *1:225 *1:320 0.204126
161 *1:143 *674:CK 1.01979
162 *1:191 *1:190 0.861119
163 *1:115 *1:64 1.01979
164 *1:347 *588:CK 1.01979
165 *1:241 *1:347 0.204126
166 *1:315 *631:CK 1.01979
167 *1:224 *1:315 0.204126
168 *1:102 *1:329 1.01979
169 *1:102 *1:106 1.14816
170 *1:96 *1:309 1.01979
171 *1:96 *1:95 2.2959
172 *1:92 *1:91 1.72182
173 *1:126 *1:336 1.01979
174 *1:232 *1:126 0.200759
175 *1:138 *1:137 0.717599
176 *1:333 *1:140 1.01979
177 *1:333 *1:334 2.00886
178 *1:163 *605:CK 1.01979
179 *1:318 *1:319 0.861119
180 *1:176 *1:320 1.01979
181 *1:243 *1:144 0.0673407
182 *1:144 *1:143 0.14352
183 *1:116 *1:191 1.01979
184 *1:116 *1:115 0.43056
185 *1:111 *1:347 1.01979
186 *1:306 *629:CK 1.01979
187 *1:215 *1:306 0.204126
188 *1:103 *1:315 1.01979
189 *1:103 *1:102 2.2959
190 *1:97 *1:96 1.00464
191 *1:296 *1:92 1.01979
192 *1:127 *1:126 0.14352
193 *1:332 *1:138 1.01979
194 *1:332 *1:333 1.14816
195 *1:211 *1:164 0.0673407
196 *1:164 *1:163 0.14352
197 *1:311 *812:CK 1.01979
198 *1:220 *1:311 0.204126
199 *1:177 *1:319 1.01979
200 *1:177 *1:176 0.28704
201 *1:341 *779:CK 1.01979
202 *1:235 *1:341 0.204126
203 *1:117 *1:144 1.01979
204 *1:117 *1:116 1.86534
205 *1:145 *672:CK 1.01979
206 *1:112 *1:111 3.58758
207 *1:310 *639:CK 1.01979
208 *1:219 *1:310 0.204126
209 *1:107 *1:306 1.01979
210 *1:104 *1:103 2.58294
211 *1:297 *1:97 1.01979
212 *1:296 *1:297 1.86534
213 *1:331 *1:127 1.01979
214 *1:331 *1:332 1.86534
215 *1:348 *814:CK 1.01979
216 *1:242 *1:348 0.204126
217 *1:308 *811:CK 1.01979
218 *1:217 *1:308 0.204126
219 *1:166 *1:164 1.01979
220 *1:178 *1:311 1.01979
221 *1:178 *1:177 1.29168
222 *1:184 *1:341 1.01979
223 *1:184 *1:117 1.72182
224 *1:146 *1:145 0.43056
225 *1:294 *594:CK 1.01979
226 *1:212 *1:294 0.204126
227 *1:313 *595:CK 1.01979
228 *1:222 *1:313 0.204126
229 *1:112 *1:186 0.14352
230 *1:109 *1:310 1.01979
231 *1:214 *1:108 0.0673407
232 *1:108 *1:107 0.14352
233 *1:298 *1:104 1.01979
234 *1:297 *1:298 1.14816
235 *1:295 *596:CK 1.01979
236 *1:213 *1:295 0.204126
237 *1:330 *1:331 1.00464
238 *1:124 *1:348 1.01979
239 *1:141 *1:308 1.01979
240 *1:166 *1:165 2.00886
241 *1:165 *1:178 1.4352
242 *1:185 *1:184 0.14352
243 *1:289 *1:146 1.01979
244 *1:206 *1:289 0.204126
245 *1:135 *1:294 1.01979
246 *1:113 *1:313 1.01979
247 *1:113 *1:186 1.14816
248 *1:110 *1:109 1.4352
249 *1:299 *1:108 1.01979
250 *1:298 *1:299 1.00464
251 *1:128 *1:295 1.01979
252 *1:122 *1:330 1.01979
253 *1:122 *1:124 1.86534
254 *1:142 *1:141 0.574079
255 *1:305 *1:165 1.01979
256 *1:338 *1:185 1.01979
257 *1:174 *1:289 1.01979
258 *1:135 *1:114 1.14816
259 *1:114 *1:113 1.86534
260 *1:300 *1:110 1.01979
261 *1:299 *1:300 1.14816
262 *1:128 *1:123 0.43056
263 *1:123 *1:122 4.87883
264 *1:304 *1:142 1.01979
265 *1:304 *1:305 5.02235
266 *1:338 *1:339 1.00464
267 *1:175 *1:174 2.43942
268 *1:260 *586:CK 1.01979
269 *1:196 *1:260 0.204126
270 *1:301 *1:114 1.01979
271 *1:300 *1:301 0.861119
272 *1:303 *1:123 1.01979
273 *1:303 *1:304 3.0135
274 *1:335 *795:CK 1.01979
275 *1:230 *1:335 0.204126
276 *1:125 *1:339 1.01979
277 *1:288 *1:175 1.01979
278 *1:205 *1:288 0.204126
279 *1:290 *618:CK 1.01979
280 *1:207 *1:290 0.204126
281 *1:261 *651:CK 1.01979
282 *1:197 *1:261 0.204126
283 *1:88 *1:260 1.01979
284 *1:301 *1:302 2.00886
285 *1:302 *1:303 1.00464
286 *1:118 *1:335 1.01979
287 *1:118 *1:125 0.861119
288 *1:129 *1:288 1.01979
289 *1:283 *813:CK 1.01979
290 *1:203 *1:283 0.204126
291 *1:180 *1:290 1.01979
292 *1:94 *1:261 1.01979
293 *1:88 *1:87 1.00464
294 *1:293 *582:CK 1.01979
295 *1:210 *1:293 0.204126
296 *1:119 *1:302 1.01979
297 *1:119 *1:118 5.02235
298 *1:130 *1:129 2.00886
299 *1:284 *1:283 1.01979
300 *1:181 *1:180 1.86534
301 *1:264 *592:CK 1.01979
302 *1:198 *1:264 0.204126
303 *1:94 *1:93 0.574079
304 *1:262 *1:87 1.01979
305 *1:120 *1:293 1.01979
306 *1:120 *1:119 2.72646
307 *1:287 *1:130 1.01979
308 *1:182 *1:284 0.14352
309 *1:182 *1:181 0.14352
310 *1:265 *1:264 1.01979
311 *1:199 *1:265 0.130893
312 *1:263 *1:93 1.01979
313 *1:262 *1:263 2.00886
314 *1:281 *685:CK 1.01979
315 *1:202 *1:281 0.204126
316 *1:121 *1:120 3.0135
317 *1:121 *1:287 0.14352
318 *1:183 *1:182 1.00464
319 *1:266 *1:265 1.01979
320 *1:263 *1:266 2.00886
321 *1:279 *602:CK 1.01979
322 *1:200 *1:279 0.204126
323 *1:282 *1:281 1.01979
324 *1:179 *1:121 2.72646
325 *1:267 *1:183 1.01979
326 *1:266 *1:267 3.87462
327 *1:280 *668:CK 1.01979
328 *1:201 *1:280 0.204126
329 *1:291 *671:CK 1.01979
330 *1:208 *1:291 0.204126
331 *1:133 *1:279 1.01979
332 *1:269 *1:282 0.717599
333 *1:268 *1:179 1.01979
334 *1:267 *1:268 1.00464
335 *1:169 *1:280 1.01979
336 *1:171 *670:CK 1.01979
337 *1:258 *673:CK 1.01979
338 *1:194 *1:258 0.204126
339 *1:259 *684:CK 1.01979
340 *1:195 *1:259 0.204126
341 *1:131 *1:291 1.01979
342 *1:134 *1:133 0.43056
343 *1:270 *1:269 1.01979
344 *1:268 *1:270 1.00464
345 *1:170 *1:169 0.28704
346 *1:172 *1:171 1.00464
347 *1:160 *1:258 1.01979
348 *1:150 *1:259 1.01979
349 *1:132 *1:131 3.0135
350 *1:271 *1:134 1.01979
351 *1:270 *1:271 1.00464
352 *1:278 *1:170 1.01979
353 *1:159 *1:172 1.01979
354 *1:160 *1:159 1.29168
355 *1:150 *1:149 1.14816
356 *1:272 *1:132 1.01979
357 *1:271 *1:272 1.00464
358 *1:277 *1:278 2.15238
359 *1:276 *1:159 1.01979
360 *1:273 *1:149 1.01979
361 *1:272 *1:273 3.0135
362 *1:275 *1:277 0.14352
363 *1:275 *1:276 0.14352
364 *1:273 *1:274 1.00464
365 *1:274 *1:275 0.861119
366 *1:155 *1:274 1.01979
367 *1:156 *1:155 1.29168
368 *1:257 *1:156 1.01979
369 *1:257 *669:CK 1.01979
370 *1:193 *1:257 0.204126
371 *1:285 *1 27.5827503
*END

*D_NET *2 0.0679274

*CONN
*P *2 I *C 0 0 *L 0
*I *818:RN I *C 59.245 19.065 *L 0.00347 *D DFFRX1M
*I *817:RN I *C 43.665 12.095 *L 0.00362 *D DFFRX2M
*I *816:RN I *C 52.275 80.975 *L 0.00347 *D DFFRX1M
*I *815:RN I *C 65.805 75.235 *L 0.00347 *D DFFRX1M
*I *814:RN I *C 62.935 58.015 *L 0.00347 *D DFFRX1M
*I *813:RN I *C 24.395 52.275 *L 0.00347 *D DFFRX1M
*I *812:RN I *C 49.405 80.975 *L 0.00347 *D DFFRX1M
*I *811:RN I *C 46.945 64.985 *L 0.00347 *D DFFRX1M
*I *810:RN I *C 63.755 69.495 *L 0.00347 *D DFFRX1M
*I *809:RN I *C 50.225 30.545 *L 0.00362 *D DFFRX2M
*I *808:RN I *C 46.125 13.325 *L 0.00347 *D DFFRX1M
*I *807:RN I *C 35.055 13.325 *L 0.00362 *D DFFRX2M
*I *795:SN I *C 63.345 54.325 *L 0.00222 *D DFFSQX1M
*I *779:SN I *C 57.195 51.455 *L 0.00221 *D DFFSQX2M
*I *749:RN I *C 71.135 47.765 *L 0.00455 *D DFFRQX2M
*I *714:RN I *C 71.955 64.985 *L 0.00455 *D DFFRQX2M
*I *705:RN I *C 74.415 53.505 *L 0.00455 *D DFFRQX2M
*I *685:RN I *C 23.575 57.195 *L 0.00465 *D SDFFRQX2M
*I *684:RN I *C 18.245 71.545 *L 0.00465 *D SDFFRQX2M
*I *675:RN I *C 71.545 80.975 *L 0.00455 *D DFFRQX2M
*I *674:RN I *C 64.165 52.275 *L 0.00455 *D DFFRQX2M
*I *673:RN I *C 15.375 77.285 *L 0.00465 *D SDFFRQX2M
*I *672:RN I *C 26.855 68.675 *L 0.00465 *D SDFFRQX2M
*I *671:RN I *C 27.675 62.935 *L 0.00465 *D SDFFRQX2M
*I *670:RN I *C 19.065 80.155 *L 0.00465 *D SDFFRQX2M
*I *669:RN I *C 15.375 74.415 *L 0.00465 *D SDFFRQX2M
*I *668:RN I *C 20.295 83.025 *L 0.00465 *D SDFFRQX2M
*I *651:RN I *C 16.195 35.055 *L 0.00455 *D DFFRQX2M
*I *649:RN I *C 49.815 36.285 *L 0.00455 *D DFFRQX2M
*I *639:RN I *C 51.045 46.535 *L 0.00455 *D DFFRQX2M
*I *637:RN I *C 52.685 77.285 *L 0.00465 *D SDFFRQX2M
*I *636:RN I *C 75.645 75.235 *L 0.00455 *D DFFRQX2M
*I *635:RN I *C 64.575 39.975 *L 0.00465 *D SDFFRQX2M
*I *634:RN I *C 71.545 14.145 *L 0.00465 *D SDFFRQX2M
*I *633:RN I *C 71.545 42.845 *L 0.00465 *D SDFFRQX2M
*I *632:RN I *C 72.365 39.975 *L 0.00465 *D SDFFRQX2M
*I *631:RN I *C 53.095 39.975 *L 0.00465 *D SDFFRQX2M
*I *630:RN I *C 55.965 14.145 *L 0.00465 *D SDFFRQX2M
*I *629:RN I *C 43.665 42.845 *L 0.00465 *D SDFFRQX2M
*I *628:RN I *C 75.645 17.015 *L 0.00465 *D SDFFRQX2M
*I *627:RN I *C 63.755 17.015 *L 0.00465 *D SDFFRQX2M
*I *618:RN I *C 26.035 52.275 *L 0.00455 *D DFFRQX2M
*I *617:RN I *C 76.465 36.285 *L 0.00455 *D DFFRQX2M
*I *616:RN I *C 51.455 36.285 *L 0.00455 *D DFFRQX2M
*I *615:RN I *C 58.015 64.985 *L 0.00455 *D DFFRQX2M
*I *614:RN I *C 73.185 24.805 *L 0.00455 *D DFFRQX2M
*I *613:RN I *C 57.605 60.065 *L 0.00465 *D SDFFRQX2M
*I *611:RN I *C 73.185 30.545 *L 0.00455 *D DFFRQX2M
*I *605:RN I *C 41.205 80.975 *L 0.00455 *D DFFRQX2M
*I *604:RN I *C 59.245 13.325 *L 0.00455 *D DFFRQX2M
*I *603:RN I *C 72.365 29.315 *L 0.00455 *D DFFRQX2M
*I *602:RN I *C 20.295 60.065 *L 0.00465 *D SDFFRQX2M
*I *601:RN I *C 26.445 13.325 *L 0.00455 *D DFFRQX2M
*I *600:RN I *C 74.005 19.065 *L 0.00455 *D DFFRQX2M
*I *596:RN I *C 44.485 57.195 *L 0.00465 *D SDFFRQX2M
*I *595:RN I *C 48.585 48.585 *L 0.00465 *D SDFFRQX2M
*I *594:RN I *C 42.435 48.585 *L 0.00465 *D SDFFRQX2M
*I *592:RN I *C 17.835 40.795 *L 0.00455 *D DFFRQX2M
*I *590:RN I *C 76.055 70.725 *L 0.00455 *D DFFRQX2M
*I *588:RN I *C 65.805 47.765 *L 0.00455 *D DFFRQX2M
*I *586:RN I *C 14.965 29.315 *L 0.00455 *D DFFRQX2M
*I *584:RN I *C 59.655 70.725 *L 0.00455 *D DFFRQX2M
*I *582:SN I *C 32.185 54.325 *L 0.00222 *D DFFSQX1M

*CAP
1 *818:RN 5.60205e-05
2 *817:RN 5.60205e-05
3 *816:RN 5.60205e-05
4 *815:RN 5.60205e-05
5 *814:RN 5.60205e-05
6 *813:RN 5.60205e-05
7 *812:RN 5.60205e-05
8 *811:RN 5.60205e-05
9 *810:RN 5.60205e-05
10 *809:RN 5.60205e-05
11 *808:RN 5.60205e-05
12 *807:RN 5.60205e-05
13 *795:SN 5.60205e-05
14 *779:SN 5.60205e-05
15 *749:RN 5.60205e-05
16 *714:RN 5.60205e-05
17 *705:RN 5.60205e-05
18 *685:RN 5.60205e-05
19 *684:RN 5.60205e-05
20 *675:RN 5.60205e-05
21 *674:RN 5.60205e-05
22 *673:RN 5.60205e-05
23 *672:RN 5.60205e-05
24 *671:RN 5.60205e-05
25 *670:RN 0.000112067
26 *669:RN 0.000112067
27 *668:RN 5.60205e-05
28 *651:RN 5.3072e-05
29 *649:RN 5.60205e-05
30 *639:RN 5.60205e-05
31 *637:RN 5.60205e-05
32 *636:RN 5.60205e-05
33 *635:RN 5.60205e-05
34 *634:RN 5.60205e-05
35 *633:RN 0.000112067
36 *632:RN 5.60205e-05
37 *631:RN 5.60205e-05
38 *630:RN 5.60205e-05
39 *629:RN 5.60205e-05
40 *628:RN 5.60205e-05
41 *627:RN 5.60205e-05
42 *618:RN 5.60205e-05
43 *617:RN 5.60205e-05
44 *616:RN 5.60205e-05
45 *615:RN 5.60205e-05
46 *614:RN 5.60205e-05
47 *613:RN 5.60205e-05
48 *611:RN 5.58154e-05
49 *605:RN 5.60205e-05
50 *604:RN 5.60205e-05
51 *603:RN 5.60205e-05
52 *602:RN 0.000112067
53 *601:RN 5.60205e-05
54 *600:RN 5.60205e-05
55 *596:RN 5.60205e-05
56 *595:RN 5.60205e-05
57 *594:RN 5.60205e-05
58 *592:RN 0.000160498
59 *590:RN 5.60205e-05
60 *588:RN 5.60205e-05
61 *586:RN 5.60205e-05
62 *584:RN 5.60205e-05
63 *582:SN 5.60205e-05
64 *2:64 0.000258797
65 *2:65 0.00032697
66 *2:66 0.00016901
67 *2:67 0.000100863
68 *2:68 0.000251336
69 *2:69 0.000251336
70 *2:70 0.000442139
71 *2:71 0.000668785
72 *2:72 0.000205289
73 *2:73 0.000327867
74 *2:74 0.000383965
75 *2:75 0.0003914
76 *2:76 0.000438601
77 *2:77 0.000249977
78 *2:78 0.000251926
79 *2:79 0.000257335
80 *2:80 0.000114682
81 *2:81 7.68904e-05
82 *2:82 8.05054e-05
83 *2:83 8.05054e-05
84 *2:84 4.63547e-05
85 *2:85 4.63547e-05
86 *2:86 4.66367e-05
87 *2:87 0.000693885
88 *2:88 0.000693885
89 *2:89 0.000611969
90 *2:90 0.000768981
91 *2:91 9.89396e-05
92 *2:92 0.000131321
93 *2:93 0.000145115
94 *2:94 0.00014391
95 *2:95 0.00014391
96 *2:96 6.18917e-05
97 *2:97 6.18917e-05
98 *2:98 6.98397e-05
99 *2:99 0.000179983
100 *2:100 0.000369581
101 *2:101 0.000314099
102 *2:102 0.000851127
103 *2:103 0.00045565
104 *2:104 0.000128962
105 *2:105 0.000166677
106 *2:106 0.000409732
107 *2:107 0.000528567
108 *2:108 0.000506979
109 *2:109 0.000149884
110 *2:110 0.000218031
111 *2:111 0.000328559
112 *2:112 0.000345686
113 *2:113 7.3583e-05
114 *2:114 0.00010076
115 *2:115 0.000500185
116 *2:116 0.000468034
117 *2:117 0.000152345
118 *2:118 0.000152345
119 *2:119 6.04303e-05
120 *2:120 6.04303e-05
121 *2:121 0.000276564
122 *2:122 0.000276564
123 *2:123 0.000752033
124 *2:124 0.00136667
125 *2:125 4.8252e-05
126 *2:126 4.8252e-05
127 *2:127 0.000327893
128 *2:128 0.000441882
129 *2:129 0.000143192
130 *2:130 0.000277846
131 *2:131 0.000285307
132 *2:132 0.000235876
133 *2:133 0.000266309
134 *2:134 0.000310177
135 *2:135 0.000236799
136 *2:136 0.000114297
137 *2:137 0.000114297
138 *2:138 0.000333123
139 *2:139 0.000325662
140 *2:140 4.59189e-05
141 *2:141 5.33797e-05
142 *2:142 0.000304587
143 *2:143 0.000304587
144 *2:144 7.46085e-05
145 *2:145 0.000142756
146 *2:146 0.00131752
147 *2:147 0.000945785
148 *2:148 0.000195136
149 *2:149 0.0001375
150 *2:150 0.000735112
151 *2:151 0.000856537
152 *2:152 0.000425884
153 *2:153 0.000372222
154 *2:154 0.000372222
155 *2:155 0.000288307
156 *2:156 0.000288307
157 *2:157 0.000190623
158 *2:158 0.000152832
159 *2:159 0.000290794
160 *2:160 0.000290794
161 *2:161 0.000956399
162 *2:162 0.000734702
163 *2:163 0.000390759
164 *2:164 0.000347609
165 *2:165 0.000348865
166 *2:166 0.000216775
167 *2:167 0.000178984
168 *2:168 0.000185727
169 *2:169 6.56606e-05
170 *2:170 0.000629481
171 *2:171 0.000629481
172 *2:172 0.000607662
173 *2:173 0.00013527
174 *2:174 0.000178599
175 *2:175 0.000541617
176 *2:176 0.000441216
177 *2:177 0.000441216
178 *2:178 0.000176573
179 *2:179 0.000176573
180 *2:180 0.000412859
181 *2:181 0.000136782
182 *2:182 0.000445908
183 *2:183 0.000445908
184 *2:184 0.000100093
185 *2:185 0.000193034
186 *2:186 0.000630865
187 *2:187 0.000537925
188 *2:188 0.000213391
189 *2:189 0.000128911
190 *2:190 0.000582767
191 *2:191 0.000582767
192 *2:192 7.11986e-05
193 *2:193 0.000232979
194 *2:194 0.000176061
195 *2:195 0.000441165
196 *2:196 0.000354044
197 *2:197 0.000205032
198 *2:198 0.000179189
199 *2:199 0.000179189
200 *2:200 0.000290922
201 *2:201 0.000290922
202 *2:202 0.000111246
203 *2:203 0.000266514
204 *2:204 0.000491621
205 *2:205 0.000491621
206 *2:206 0.000100786
207 *2:207 9.33247e-05
208 *2:208 0.000525054
209 *2:209 0.000525054
210 *2:210 0.000118374
211 *2:211 0.000125835
212 *2:212 0.000173881
213 *2:213 0.000181317
214 *2:214 0.000321381
215 *2:215 0.00112202
216 *2:216 0.00168023
217 *2:217 0.00116664
218 *2:218 0.000205955
219 *2:219 0.000253387
220 *2:220 0.000112195
221 *2:221 0.000986063
222 *2:222 4.66367e-05
223 *2:223 4.66367e-05
224 *2:235 8.16079e-05
225 *2:236 8.52229e-05
226 *2:237 0.000192623
227 *2:238 0.000636352
228 *2:239 8.90687e-05
229 *2:240 6.60708e-05
230 *2:241 0.000103862
231 *2:242 7.21985e-05
232 *2:243 0.000146961
233 *2:244 0.000109195
234 *2:245 4.45087e-05
235 *2:246 8.23001e-05
236 *2:247 8.23001e-05
237 *2:248 0.000117887
238 *2:249 8.7633e-05
239 *2:250 0.000152242
240 *2:251 4.66367e-05
241 *2:252 0.000516645
242 *2:253 4.59445e-05
243 *2:254 0.000516645
244 *2:255 5.02005e-05
245 *2:256 5.02005e-05
246 *2:257 0.000140679
247 *2:258 0.000148115
248 *2:259 4.58676e-05
249 *2:260 4.45087e-05
250 *2:261 4.45087e-05
251 *2:262 0.000127552
252 *2:263 4.58676e-05
253 *2:264 0.000188547
254 *2:265 0.000113143
255 *2:266 8.43256e-05
256 *2:267 7.68904e-05
257 *2:268 0.000118989
258 *2:269 0.000178599
259 *2:270 0.000119066
260 *2:271 0.000699038
261 *2:272 0.000142987
262 *2:273 4.58676e-05
263 *2:274 0.000310484
264 *2:275 0.00063871
265 *2:276 6.89167e-05
266 *2:277 0.000169523
267 *2:278 8.59664e-05
268 *2:279 4.8252e-05
269 *2:280 0.000447625
270 *2:281 0.000150525
271 *2:282 0.000459189
272 *2:283 0.000108862
273 *2:284 8.77355e-05
274 *2:285 0.000157293
275 *2:286 0.000459189
276 *2:287 0.000112426
277 *2:288 5.7405e-05
278 *2:289 0.000109554
279 *2:290 8.79663e-05
280 *2:291 4.45087e-05
281 *2:292 0.000104965
282 *2:293 5.33028e-05
283 *2:294 0.000224749
284 *2:295 9.93498e-05
285 *2:296 9.50682e-05
286 *2:297 8.7633e-05
287 *2:298 7.34804e-05
288 *2:121 *136:3 0.00015642
289 *2:122 *136:4 0.00015642
290 *2:121 *136:4 2.04e-05
291 *2:122 *136:16 2.03999862e-05
292 *2:200 *217:3 0.00014169
293 *2:201 *217:4 0.000141689995
294 *2:70 *69:12 6.119e-05
295 *2:71 *69:11 6.119e-05
296 *2:70 *69:11 0.00011998
297 *2:71 *69:10 0.00011998
298 *2:70 *69:8 2.372e-05
299 *2:71 *69:7 2.37199882e-05

*RES
1 *2:137 *817:RN 1.01995
2 *2:137 *2:136 0.430395
3 *2:263 *808:RN 1.01995
4 *2:229 *2:263 0.204309
5 *2:262 *2:136 1.01995
6 *2:264 *2:263 1.01995
7 *2:262 *2:264 0.86111
8 *2:264 *2:265 0.28693
9 *2:133 *2:265 0.28693
10 *2:82 *630:RN 1.01995
11 *2:133 *2:132 1.2915
12 *2:83 *2:82 0.28693
13 *2:132 *2:129 0.143465
14 *2:128 *2:83 1.01995
15 *2:129 *2:128 0.430395
16 *2:128 *2:127 1.14804
17 *2:131 *2:127 0.143465
18 *2:131 *2:130 1.43497
19 *2:276 *2:130 1.01995
20 *2:101 *604:RN 1.01995
21 *2:276 *2:101 0.28693
22 *2:100 *627:RN 1.01995
23 *2:101 *2:100 1.43497
24 *2:99 *818:RN 1.01995
25 *2:100 *2:99 0.57386
26 *2:293 *614:RN 1.01995
27 *2:99 *2:98 0.430395
28 *2:135 *634:RN 1.01995
29 *2:144 *600:RN 1.01995
30 *2:118 *2:293 0.143465
31 *2:140 *2:98 1.01995
32 *2:134 *628:RN 1.01995
33 *2:135 *2:134 1.14804
34 *2:145 *2:144 0.28693
35 *2:118 *2:117 0.717645
36 *2:141 *2:140 0.143465
37 *2:134 *2:294 0.430395
38 *2:145 *2:294 0.430395
39 *2:149 *2:117 0.143465
40 *2:290 *611:RN 0.548241
41 *2:141 *2:138 0.143465
42 *2:294 *2:295 0.430395
43 *2:148 *603:RN 1.01995
44 *2:149 *2:148 0.86111
45 *2:291 *2:290 1.01995
46 *2:139 *2:138 1.7219
47 *2:295 *2:143 0.143465
48 *2:148 *2:289 0.28693
49 *2:289 *2:291 0.143465
50 *2:88 *2:139 1.01995
51 *2:143 *2:142 1.43497
52 *2:156 *2:289 1.01995
53 *2:88 *2:87 3.44412
54 *2:142 *2:152 0.143465
55 *2:156 *2:155 1.43497
56 *2:153 *2:87 1.01995
57 *2:152 *2:151 2.29608
58 *2:151 *2:155 1.01995
59 *2:154 *2:153 1.2915
60 *2:267 *629:RN 1.01995
61 *2:150 *617:RN 1.01995
62 *2:151 *2:150 2.15262
63 *2:158 *809:RN 1.01995
64 *2:158 *2:154 1.01995
65 *2:273 *616:RN 1.01995
66 *2:230 *2:273 0.0349055
67 *2:266 *2:267 0.28693
68 *2:165 *632:RN 1.01995
69 *2:150 *2:165 1.43497
70 *2:158 *2:157 0.86111
71 *2:159 *2:273 1.01995
72 *2:266 *2:270 0.143465
73 *2:165 *2:298 0.28693
74 *2:77 *2:157 0.28693
75 *2:160 *2:159 0.86111
76 *2:269 *631:RN 1.01995
77 *2:269 *2:270 0.430395
78 *2:296 *2:298 0.143465
79 *2:76 *649:RN 1.01995
80 *2:77 *2:76 1.14804
81 *2:76 *2:160 1.01995
82 *2:268 *2:269 0.28693
83 *2:296 *2:297 0.430395
84 *2:76 *2:90 1.14804
85 *2:268 *2:90 0.28693
86 *633:RN *2:297 1.01995
87 *2:169 *639:RN 1.01995
88 *2:90 *2:89 2.72648
89 *2:167 *635:RN 1.01995
90 *2:169 *2:168 0.28693
91 *2:89 *2:168 0.57386
92 *2:167 *2:166 0.57386
93 *2:164 *633:RN 1.01995
94 *2:176 *705:RN 1.01995
95 *2:168 *2:272 0.143465
96 *2:166 *2:108 0.28693
97 *2:163 *749:RN 1.01995
98 *2:164 *2:163 1.7219
99 *2:177 *2:176 1.7219
100 *2:272 *2:93 0.57386
101 *2:107 *588:RN 1.01995
102 *2:108 *2:107 2.15262
103 *2:163 *2:288 0.28693
104 *2:174 *2:177 1.01995
105 *2:92 *595:RN 1.01995
106 *2:93 *2:92 0.143465
107 *2:107 *2:113 0.28693
108 *2:175 *2:288 1.01995
109 *2:175 *2:174 0.86111
110 *2:94 *779:SN 1.01995
111 *2:92 *2:91 0.430395
112 *2:180 *2:113 1.01995
113 *2:180 *2:175 2.15262
114 *2:95 *2:94 0.717645
115 *2:274 *2:91 1.01995
116 *2:284 *2:180 0.143465
117 *2:275 *2:95 1.01995
118 *2:274 *2:275 1.57843
119 *2:284 *2:285 0.28693
120 *2:275 *2:280 2.15262
121 *2:280 *2:285 0.57386
122 *2:109 *674:RN 1.01995
123 *2:119 *714:RN 1.01995
124 *2:114 *2:280 1.01995
125 *2:110 *2:109 0.57386
126 *2:234 *2:120 0.0675694
127 *2:120 *2:119 0.143465
128 *2:114 *2:112 0.430395
129 *2:112 *2:110 0.430395
130 *2:292 *2:120 1.01995
131 *2:111 *795:SN 1.01995
132 *2:112 *2:111 1.2915
133 *2:287 *2:292 0.430395
134 *2:111 *2:281 0.717645
135 *2:96 *615:RN 1.01995
136 *2:286 *2:287 0.143465
137 *2:189 *2:281 0.143465
138 *2:279 *613:RN 1.01995
139 *2:232 *2:97 0.0675694
140 *2:97 *2:96 0.143465
141 *2:282 *2:286 2.43954
142 *2:188 *814:RN 1.01995
143 *2:189 *2:188 0.57386
144 *2:278 *2:279 0.143465
145 *2:196 *2:97 1.01995
146 *2:282 *2:283 0.143465
147 *2:188 *2:116 0.430395
148 *2:278 *2:116 0.28693
149 *2:196 *2:195 1.57843
150 *2:195 *2:283 0.430395
151 *2:122 *590:RN 1.01995
152 *2:116 *2:115 1.86536
153 *2:115 *2:195 1.01995
154 *2:121 *636:RN 1.01995
155 *2:122 *2:121 1.57843
156 *2:115 *2:197 0.86111
157 *2:198 *584:RN 1.01995
158 *2:210 *2:121 1.01995
159 *2:197 *2:105 0.28693
160 *2:199 *2:198 0.430395
161 *2:211 *2:210 0.430395
162 *2:104 *810:RN 1.01995
163 *2:105 *2:104 0.86111
164 *2:277 *2:199 1.01995
165 *2:211 *2:208 0.143465
166 *2:203 *2:104 1.01995
167 *2:277 *2:203 1.2915
168 *2:209 *2:208 2.72648
169 *2:203 *2:202 0.717645
170 *2:206 *2:209 0.143465
171 *2:81 *637:RN 1.01995
172 *2:103 *2:202 1.01995
173 *2:207 *2:206 0.430395
174 *2:223 *675:RN 1.01995
175 *2:233 *2:223 0.0675694
176 *2:81 *2:80 0.28693
177 *2:102 *815:RN 1.01995
178 *2:103 *2:102 2.00915
179 *2:102 *2:207 1.01995
180 *2:223 *2:222 0.143465
181 *2:80 *2:79 0.28693
182 *2:85 *816:RN 1.01995
183 *2:231 *2:85 0.0675694
184 *2:102 *2:106 2.15262
185 *2:214 *2:222 1.01995
186 *2:78 *812:RN 1.01995
187 *2:79 *2:78 1.14804
188 *2:85 *2:84 0.143465
189 *2:215 *2:106 1.01995
190 *2:215 *2:214 1.86536
191 *2:260 *605:RN 1.01995
192 *2:228 *2:260 0.0675694
193 *2:78 *2:86 0.143465
194 *2:221 *2:84 1.01995
195 *2:221 *2:215 4.73562
196 *2:260 *2:261 0.143465
197 *2:271 *2:86 1.01995
198 *2:271 *2:221 1.00458
199 *2:216 *2:261 1.01995
200 *2:216 *2:271 3.0134
201 *2:217 *2:216 5.73988
202 *2:249 *668:RN 1.01995
203 *2:248 *2:217 1.01995
204 *2:248 *2:249 0.430395
205 *2:247 *2:248 0.143465
206 *2:246 *2:247 0.28693
207 *2:245 *2:246 0.143465
208 *2:67 *684:RN 1.01995
209 *670:RN *2:245 1.01995
210 *2:67 *2:66 0.28693
211 *2:66 *2:65 0.430395
212 *2:212 *670:RN 1.01995
213 *2:257 *594:RN 1.01995
214 *2:65 *2:64 0.86111
215 *2:213 *2:212 0.86111
216 *2:257 *2:258 0.717645
217 *669:RN *2:64 1.01995
218 *2:213 *2:242 0.143465
219 *2:258 *2:179 0.143465
220 *2:190 *811:RN 1.01995
221 *2:218 *673:RN 1.01995
222 *2:218 *2:242 0.28693
223 *2:179 *2:178 0.717645
224 *2:191 *2:190 2.76138
225 *2:219 *669:RN 1.01995
226 *2:219 *2:218 0.717645
227 *2:178 *2:75 0.143465
228 *2:259 *596:RN 1.01995
229 *2:227 *2:259 0.204309
230 *2:184 *2:191 1.01995
231 *2:220 *2:219 0.430395
232 *2:75 *2:74 1.86536
233 *2:185 *2:259 1.01995
234 *2:185 *2:184 0.430395
235 *2:205 *2:220 1.01995
236 *2:186 *2:74 1.01995
237 *2:186 *2:185 0.430395
238 *2:205 *2:204 2.58301
239 *2:187 *2:186 2.43954
240 *2:200 *2:204 1.01995
241 *2:72 *2:187 1.01995
242 *2:240 *685:RN 1.01995
243 *2:201 *672:RN 1.01995
244 *2:201 *2:200 1.7219
245 *2:73 *582:SN 1.01995
246 *2:73 *2:72 1.14804
247 *2:240 *2:241 0.28693
248 *2:253 *2:201 1.01995
249 *2:225 *2:253 0.204309
250 *2:68 *671:RN 1.01995
251 *2:181 *2:73 0.57386
252 *2:241 *2:243 0.28693
253 *2:254 *2:253 1.01995
254 *2:69 *2:68 1.14804
255 *2:182 *2:181 1.01995
256 *2:243 *2:244 0.57386
257 *2:252 *2:254 3.15687
258 *2:192 *2:69 1.01995
259 *2:183 *2:182 2.15262
260 *602:RN *2:244 1.01995
261 *2:193 *2:252 1.01995
262 *2:193 *2:192 0.28693
263 *2:251 *2:183 1.01995
264 *2:194 *2:193 0.86111
265 *2:250 *618:RN 1.01995
266 *2:250 *2:251 0.143465
267 *2:70 *602:RN 1.01995
268 *2:70 *2:194 1.01995
269 *2:71 *813:RN 1.01995
270 *2:71 *2:250 0.57386
271 *2:71 *2:70 2.58301
272 *2:173 *2:71 0.717645
273 *2:170 *2:173 1.01995
274 *2:171 *2:170 3.15687
275 *2:237 *592:RN 1.64472
276 *2:172 *2:171 1.01995
277 *2:236 *651:RN 0.548241
278 *2:161 *2:237 1.01995
279 *2:161 *2:172 3.30065
280 *2:162 *2:236 1.01995
281 *2:162 *2:161 2.00915
282 *2:146 *586:RN 1.01995
283 *2:146 *2:162 2.00915
284 *2:147 *2:146 5.59641
285 *2:235 *2:147 1.01995
286 *2:256 *807:RN 1.01995
287 *2:235 *2:239 0.28693
288 *2:226 *2:255 0.0675694
289 *2:255 *2:256 0.143465
290 *2:238 *2:239 0.143465
291 *2:123 *2:255 1.01995
292 *2:238 *2:124 3.44412
293 *2:124 *2:123 3.15687
294 *2:125 *601:RN 1.01995
295 *2:126 *2:124 1.01995
296 *2:126 *2:125 0.143465
297 *2:224 *2:126 0.0675694
298 *2:147 *2 20.9868755
*END

*D_NET *3 0.0160472

*CONN
*P *3 I *C 0 0 *L 0
*I *799:A I *C 60.475 57.195 *L 0.00239 *D CLKINVX2M

*CAP
1 *3 0.00802362
2 *799:A 0.00802362

*RES
1 *3 *799:A 45.3029
*END

*D_NET *4 0.00072976

*CONN
*P *4 I *C 0 0 *L 0
*I *734:B I *C 23.165 65.805 *L 0.00319 *D XOR3X1M
*I *672:D I *C 24.805 67.855 *L 0.00103 *D SDFFRQX2M

*CAP
1 *734:B 5.60316e-05
2 *672:D 5.60316e-05
3 *4:3 7.1958e-05
4 *4:4 0.00017047
5 *4:5 0.00023689
6 *4:6 0.000138378

*RES
1 *4:6 *672:D 1.01953
2 *4:5 *4:6 0.430843
3 *4:4 *4:5 0.573796
4 *4:3 *4:4 0.286898
5 *734:B *4:3 1.01953
6 *734:B *4 65.0593109
*END

*D_NET *5 0.00237549

*CONN
*P *5 I *C 0 0 *L 0
*I *723:B I *C 13.325 65.805 *L 0.00319 *D XOR3X1M
*I *684:D I *C 20.295 72.365 *L 0.00103 *D SDFFRQX2M

*CAP
1 *723:B 5.60309e-05
2 *684:D 5.60309e-05
3 *5:3 0.00018546
4 *5:4 0.00018546
5 *5:5 0.000188181
6 *5:6 0.000195637
7 *5:7 0.00034292
8 *5:8 0.000335458
9 *5:9 0.000214799
10 *5:10 0.000214799
11 *5:5 *101:24 4.733e-05
12 *5:6 *101:25 4.733e-05
13 *5:7 *101:24 1.222e-05
14 *5:8 *101:25 1.222e-05
15 *5:10 *101:26 0.00014081
16 *5:9 *101:27 0.000140809996

*RES
1 *5:10 *684:D 1.01979
2 *5:9 *5:10 1.57868
3 *5:5 *5:9 1.01979
4 *5:6 *5:5 1.00478
5 *5:7 *5:6 0.143918
6 *5:8 *5:7 1.43476
7 *5:3 *5:8 1.01979
8 *5:4 *5:3 0.573906
9 *723:B *5:4 1.01979
10 *723:B *5 57.8638115
*END

*D_NET *6 0.00151716

*CONN
*P *6 I *C 0 0 *L 0
*I *669:D I *C 13.325 73.595 *L 0.00103 *D SDFFRQX2M
*I *581:A I *C 18.245 68.675 *L 0.0089 *D XNOR2X8M

*CAP
1 *669:D 5.60306e-05
2 *581:A 5.60306e-05
3 *6:3 0.000335191
4 *6:4 0.000335191
5 *6:5 0.00034443
6 *6:6 0.00034443
7 *6:8 4.58504e-05

*RES
1 *6:4 *581:A 1.02028
2 *6:4 *6:3 1.72246
3 *6:5 *6:3 1.02028
4 *6:6 *6:5 1.72246
5 *6:8 *669:D 1.02028
6 *6:8 *6:6 1.02028
7 *6:7 *6:8 0.204639
8 *669:D *6 63.5602493
*END

*D_NET *7 0.00114698

*CONN
*P *7 I *C 0 0 *L 0
*I *781:A I *C 14.145 83.025 *L 0.00363 *D CLKXOR2X2M
*I *668:D I *C 18.245 83.845 *L 0.00103 *D SDFFRQX2M

*CAP
1 *781:A 5.60282e-05
2 *668:D 5.60282e-05
3 *7:3 0.000130749
4 *7:4 0.00029908
5 *7:5 0.000130749
6 *7:6 8.76316e-05
7 *7:7 0.00029908
8 *7:8 8.76316e-05

*RES
1 *7:6 *668:D 1.02025
2 *7:6 *7:8 0.430436
3 *7:7 *7:8 1.02025
4 *7:4 *7:7 2.74091
5 *7:5 *7:4 1.02025
6 *7:3 *7:5 0.717755
7 *781:A *7:3 1.02025
8 *781:A *7 71.0555649
*END

*D_NET *8 0.0014414

*CONN
*P *8 I *C 0 0 *L 0
*I *673:D I *C 13.325 78.105 *L 0.00103 *D SDFFRQX2M
*I *581:B I *C 13.735 68.675 *L 0.0115 *D XNOR2X8M

*CAP
1 *673:D 5.60301e-05
2 *581:B 5.60301e-05
3 *8:3 7.34859e-05
4 *8:4 6.60505e-05
5 *8:5 0.000591194
6 *8:6 0.00059862

*RES
1 *8:5 *581:B 1.01976
2 *8:5 *8:6 3.0133
3 *8:4 *673:D 1.01976
4 *8:3 *8:6 0.143447
5 *8:3 *8:4 0.286893
6 *581:B *8 60.26231
*END

*D_NET *9 0.00184735

*CONN
*P *9 I *C 0 0 *L 0
*I *781:B I *C 11.275 83.025 *L 0.00214 *D CLKXOR2X2M
*I *670:D I *C 17.015 79.335 *L 0.00103 *D SDFFRQX2M

*CAP
1 *781:B 5.60333e-05
2 *670:D 5.60333e-05
3 *9:3 0.00048324
4 *9:4 0.00048324
5 *9:5 7.45857e-05
6 *9:6 7.45857e-05
7 *9:7 0.000309816
8 *9:8 0.000309816

*RES
1 *9:5 *670:D 1.01991
2 *9:6 *9:5 0.286536
3 *9:3 *9:6 1.01991
4 *9:4 *9:3 2.00876
5 *9:8 *781:B 1.01991
6 *9:7 *9:4 1.01991
7 *9:7 *9:8 1.57896
8 *9:7 *9 65.6589355
*END

*D_NET *10 0.00199914

*CONN
*P *10 I *C 0 0 *L 0
*I *723:A I *C 17.835 65.805 *L 0.00305 *D XOR3X1M
*I *671:D I *C 25.625 62.115 *L 0.00103 *D SDFFRQX2M

*CAP
1 *723:A 5.60256e-05
2 *671:D 5.60256e-05
3 *10:3 0.000168048
4 *10:4 0.000168048
5 *10:5 0.00047727
6 *10:6 0.00047727
7 *10:8 4.58517e-05
8 *10:5 *66:4 0.00013449
9 *10:6 *66:5 0.000134490006
10 *10:3 *101:18 0.00014081
11 *10:4 *101:19 0.000140809993

*RES
1 *10:4 *671:D 1.02005
2 *10:4 *10:3 1.29162
3 *10:5 *10:3 1.02005
4 *10:6 *10:5 2.72604
5 *10:8 *10:6 1.02005
6 *10:8 *723:A 1.02005
7 *10:7 *10:8 0.204383
8 *723:A *10 61.1617508
*END

*D_NET *11 0.00167006

*CONN
*P *11 I *C 0 0 *L 0
*I *734:A I *C 27.675 65.805 *L 0.00305 *D XOR3X1M
*I *685:D I *C 25.625 56.375 *L 0.00103 *D SDFFRQX2M

*CAP
1 *734:A 5.60314e-05
2 *685:D 5.60314e-05
3 *11:3 0.000175511
4 *11:4 0.000213299
5 *11:5 0.000186738
6 *11:6 0.000217099121
7 *11:7 0.00017787
8 *11:8 0.000109721
9 *11:4 *101:20 4.036e-05
10 *11:3 *101:21 4.036e-05
11 *11:4 *101:19 0.00019852
12 *11:3 *101:22 0.000198519995

*RES
1 *11:8 *734:A 1.02017
2 *11:7 *11:8 0.573677
3 *11:6 *11:7 0.430944
4 *11:5 *11:6 1.00462
5 *11:4 *11:5 0.287296
6 *11:3 *11:4 1.72195
7 *685:D *11:3 1.02017
8 *685:D *11 59.9624977
*END

*D_NET *12 0.00153135

*CONN
*P *12 O *C 0 0 *L 0
*I *613:Q O *C 65.805 59.245 *L 0 *D SDFFRQX2M
*I *613:D I *C 55.555 60.885 *L 0.00103 *D SDFFRQX2M

*CAP
1 *613:Q 5.60324e-05
2 *613:D 5.60324e-05
3 *12:3 0.00066379
4 *12:4 0.00066379
5 *12:7 4.5853e-05
6 *12:8 4.5853e-05

*RES
1 *12:6 *12:8 0.20398
2 *12:8 *613:Q 1.0199
3 *12:3 *12:8 1.0199
4 *12:4 *12:3 3.58719
5 *12:7 *613:D 1.0199
6 *12:7 *12:4 1.0199
7 *12:5 *12:7 0.20398
8 *613:D *12 85.1467514
*END

*D_NET *13 0.00178213

*CONN
*P *13 O *C 0 0 *L 0
*I *630:Q O *C 47.765 13.325 *L 0 *D SDFFRQX2M
*I *630:SI I *C 56.375 14.145 *L 0.000896 *D SDFFRQX2M

*CAP
1 *630:Q 5.6035e-05
2 *630:SI 5.6035e-05
3 *13:4 4.58488e-05
4 *13:5 0.00073357
5 *13:6 7.85452e-05
6 *13:7 0.00073357
7 *13:8 7.85452e-05

*RES
1 *13:8 *630:SI 1.01974
2 *13:6 *13:8 0.286971
3 *13:7 *13:6 1.01974
4 *13:5 *13:7 3.01354
5 *13:4 *13:5 1.01974
6 *13:4 *630:Q 1.01974
7 *13:3 *13:4 0.204492
8 *630:Q *13 44.6720619
*END

*D_NET *14 0.00155027

*CONN
*P *14 O *C 0 0 *L 0
*I *632:Q O *C 80.565 40.795 *L 0 *D SDFFRQX2M
*I *632:SI I *C 71.955 39.975 *L 0.000896 *D SDFFRQX2M

*CAP
1 *632:Q 5.60281e-05
2 *632:SI 5.60281e-05
3 *14:3 6.16734e-05
4 *14:4 6.16734e-05
5 *14:5 0.0004277
6 *14:6 0.0004277
7 *14:7 9.67783e-05
8 *14:8 0.000104244
9 *14:9 0.000110033
10 *14:10 0.000102574
11 *14:12 4.58471e-05

*RES
1 *14:3 *632:SI 1.02033
2 *14:4 *14:3 0.286386
3 *14:10 *14:4 1.02033
4 *14:10 *14:9 0.430198
5 *14:9 *14:6 0.143813
6 *14:6 *14:5 2.15223
7 *14:8 *14:5 0.143813
8 *14:8 *14:7 0.430198
9 *14:12 *14:7 1.02033
10 *14:12 *632:Q 1.02033
11 *14:11 *14:12 0.204561
12 *14:4 *14 81.2491837
*END

*D_NET *15 0.00159434

*CONN
*P *15 O *C 0 0 *L 0
*I *631:Q O *C 44.895 40.795 *L 0 *D SDFFRQX2M
*I *631:SI I *C 53.505 39.975 *L 0.000896 *D SDFFRQX2M

*CAP
1 *631:Q 5.60275e-05
2 *631:SI 5.60275e-05
3 *15:3 7.85361e-05
4 *15:4 7.85361e-05
5 *15:6 4.58469e-05
6 *15:7 0.00063968
7 *15:8 0.00063968

*RES
1 *15:4 *631:SI 1.02019
2 *15:4 *15:3 0.286838
3 *15:8 *15:3 1.02019
4 *15:7 *15:8 3.01372
5 *15:6 *15:7 1.02019
6 *15:6 *631:Q 1.02019
7 *15:5 *15:6 0.204611
8 *631:Q *15 62.6608124
*END

*D_NET *16 0.00138152

*CONN
*P *16 O *C 0 0 *L 0
*I *628:Q O *C 83.845 17.835 *L 0 *D SDFFRQX2M
*I *628:SI I *C 75.235 17.015 *L 0.000896 *D SDFFRQX2M

*CAP
1 *628:Q 5.60362e-05
2 *628:SI 5.60362e-05
3 *16:4 9.79025e-05
4 *16:5 0.0005139
5 *16:6 9.79025e-05
6 *16:7 4.58499e-05
7 *16:8 0.0005139

*RES
1 *16:6 *628:SI 1.02017
2 *16:4 *16:6 0.286669
3 *16:5 *16:4 1.02017
4 *16:5 *16:8 3.0136
5 *16:7 *16:8 1.02017
6 *16:7 *628:Q 1.02017
7 *16:3 *16:7 0.204035
8 *16:4 *16 66.8581848
*END

*D_NET *17 0.00152756

*CONN
*P *17 O *C 0 0 *L 0
*I *635:Q O *C 56.375 40.795 *L 0 *D SDFFRQX2M
*I *635:SI I *C 64.985 39.975 *L 0.000896 *D SDFFRQX2M

*CAP
1 *635:Q 5.60312e-05
2 *635:SI 5.60312e-05
3 *17:4 4.58461e-05
4 *17:5 0.00058397
5 *17:6 0.000100861
6 *17:7 0.000100861
7 *17:8 0.00058397

*RES
1 *17:6 *635:SI 1.02025
2 *17:6 *17:7 0.287319
3 *17:8 *17:7 1.02025
4 *17:5 *17:8 3.01305
5 *17:4 *17:5 1.02025
6 *17:4 *635:Q 1.02025
7 *17:3 *17:4 0.203834
8 *635:Q *17 71.0555649
*END

*D_NET *18 0.00151965

*CONN
*P *18 O *C 0 0 *L 0
*I *634:Q O *C 79.745 13.325 *L 0 *D SDFFRQX2M
*I *634:SI I *C 71.135 14.145 *L 0.000896 *D SDFFRQX2M

*CAP
1 *634:Q 5.60301e-05
2 *634:SI 5.60301e-05
3 *18:4 7.19603e-05
4 *18:5 0.000101381
5 *18:6 7.19603e-05
6 *18:7 0.000356641
7 *18:8 0.000108835
8 *18:9 0.00038709
9 *18:10 0.00015089
10 *18:11 4.58471e-05
11 *18:12 0.000112982

*RES
1 *18:6 *634:SI 1.01968
2 *18:4 *18:6 0.287433
3 *18:5 *18:4 1.01968
4 *18:5 *18:8 0.430679
5 *18:7 *18:8 0.143245
6 *18:7 *18:9 2.0092
7 *18:9 *18:10 0.287433
8 *18:10 *18:12 0.573924
9 *18:11 *18:12 1.01968
10 *18:11 *634:Q 1.01968
11 *18:3 *18:11 0.204502
12 *18:4 *18 61.7613754
*END

*D_NET *19 0.00130324

*CONN
*P *19 O *C 0 0 *L 0
*I *633:Q O *C 79.745 42.025 *L 0 *D SDFFRQX2M
*I *633:SI I *C 71.135 42.845 *L 0.000896 *D SDFFRQX2M

*CAP
1 *633:Q 5.60287e-05
2 *633:SI 5.60287e-05
3 *19:5 4.5852e-05
4 *19:6 0.000429302
5 *19:7 0.000120441
6 *19:8 0.00043676
7 *19:9 4.5852e-05
8 *19:10 0.000112977

*RES
1 *19:4 *19:9 0.204758
2 *19:9 *633:Q 1.01997
3 *19:10 *19:9 1.01997
4 *19:7 *19:10 0.573576
5 *19:7 *19:8 0.143712
6 *19:6 *19:8 2.43929
7 *19:5 *633:SI 1.01997
8 *19:5 *19:6 1.01997
9 *19:3 *19:5 0.204758
10 *633:SI *19 83.3478775
*END

*D_NET *20 0.00145083

*CONN
*P *20 O *C 0 0 *L 0
*I *627:Q O *C 55.555 17.835 *L 0 *D SDFFRQX2M
*I *627:SI I *C 64.165 17.015 *L 0.000896 *D SDFFRQX2M

*CAP
1 *627:Q 5.60279e-05
2 *627:SI 5.60279e-05
3 *20:3 7.33688e-05
4 *20:4 7.33688e-05
5 *20:6 4.5849e-05
6 *20:7 0.00057309
7 *20:8 0.00057309

*RES
1 *20:4 *627:SI 1.02033
2 *20:4 *20:3 0.28661
3 *20:8 *20:3 1.02033
4 *20:7 *20:8 3.0135
5 *20:6 *20:7 1.02033
6 *20:6 *627:Q 1.02033
7 *20:5 *20:6 0.203902
8 *627:Q *20 53.6664352
*END

*D_NET *21 0.0105677

*CONN
*P *21 O *C 0 0 *L 0
*I *649:Q O *C 41.205 36.285 *L 0 *D DFFRQX2M

*CAP
1 *21 0.00528385
2 *649:Q 0.00528385

*RES
1 *21 *649:Q 29.8337
*END

*D_NET *22 0.0143139

*CONN
*P *22 O *C 0 0 *L 0
*I *588:Q O *C 57.195 47.765 *L 0 *D DFFRQX2M

*CAP
1 *22 0.00715696
2 *588:Q 0.00715696

*RES
1 *22 *588:Q 40.4096
*END

*D_NET *23 0.0121333

*CONN
*P *23 O *C 0 0 *L 0
*I *639:Q O *C 42.435 46.535 *L 0 *D DFFRQX2M

*CAP
1 *23 0.00606664
2 *639:Q 0.00606664

*RES
1 *23 *639:Q 34.2534
*END

*D_NET *24 0.00164627

*CONN
*P *24 O *C 0 0 *L 0
*I *593:B0 I *C 37.515 51.455 *L 0.00173 *D AO22X2M
*I *582:Q O *C 30.135 53.505 *L 0 *D DFFSQX1M

*CAP
1 *593:B0 5.60244e-05
2 *582:Q 5.60244e-05
3 *24:3 0.00062346
4 *24:4 0.00062346
5 *24:5 0.000120715
6 *24:6 0.000120715
7 *24:8 4.58545e-05

*RES
1 *24:6 *593:B0 1.02005
2 *24:6 *24:5 0.717673
3 *24:3 *24:5 1.02005
4 *24:4 *24:3 2.58325
5 *24:8 *24:4 1.02005
6 *24:8 *582:Q 1.02005
7 *24:7 *24:8 0.204383
8 *582:Q *24 61.1617508
*END

*D_NET *25 0.0151526

*CONN
*P *25 I *C 0 0 *L 0
*I *795:D I *C 57.195 53.915 *L 0.00108 *D DFFSQX1M

*CAP
1 *25 0.00757631
2 *795:D 0.00757631

*RES
1 *25 *795:D 42.7774
*END

*D_NET *26 0.00191206

*CONN
*I *626:B0 I *C 30.955 28.495 *L 0.00579 *D OAI21X4M
*I *426:Y O *C 29.725 16.605 *L 0 *D CLKBUFX6M

*CAP
1 *626:B0 5.60274e-05
2 *426:Y 5.60274e-05
3 *26:2 0.000290749
4 *26:3 0.00032107
5 *26:4 0.000111168
6 *26:5 0.000148882
7 *26:6 0.000160312
8 *26:7 0.000160312
9 *26:8 0.00011134
10 *26:9 0.00011134
11 *26:10 5.7311e-05
12 *26:11 4.9923e-05
13 *26:9 *237:7 4.08e-05
14 *26:8 *237:8 4.08e-05
15 *26:7 *237:9 5.989e-05
16 *26:6 *237:10 5.989e-05
17 *26:9 *237:10 1.388e-05
18 *26:8 *237:11 1.388e-05
19 *26:7 *237:12 2.423e-05
20 *26:6 *237:13 2.42299974e-05

*RES
1 *26:11 *626:B0 1.02
2 *26:10 *26:11 0.143509
3 *26:7 *26:10 0.143509
4 *26:6 *26:7 1.29149
5 *26:6 *26:9 0.143509
6 *26:8 *26:9 0.573991
7 *26:8 *26:2 0.143509
8 *26:3 *26:2 1.43499994
9 *26:5 *26:3 0.286996
10 *26:4 *26:5 0.7175
11 *426:Y *26:4 1.02
*END

*D_NET *27 0.00319689

*CONN
*I *623:B0 I *C 34.235 19.475 *L 0.00168 *D OAI2BB1X1M
*I *620:B0 I *C 34.645 22.755 *L 0.00856 *D OAI21X6M
*I *612:AN I *C 44.485 19.885 *L 0.00159 *D NAND2BX2M
*I *427:Y O *C 34.235 26.035 *L 0 *D BUFX4M

*CAP
1 *623:B0 5.60344e-05
2 *620:B0 5.60344e-05
3 *612:AN 5.60344e-05
4 *427:Y 2.51506e-05
5 *27:4 0.000118656
6 *27:5 0.000111259
7 *27:6 0.000356655
8 *27:7 0.000356655
9 *27:8 0.000203068
10 *27:9 0.000101412
11 *27:10 0.00072674
12 *27:11 0.00072674
13 *27:12 0.000173814
14 *27:13 6.38746e-05
15 *27:14 6.47728e-05

*RES
1 *27:7 *612:AN 1.02002
2 *27:7 *27:6 1.57848
3 *27:10 *27:6 1.02002
4 *427:Y *27:13 0.274107
5 *27:11 *27:10 3.44400001
6 *27:14 *27:13 1.02002
7 *27:12 *27:11 1.02002
8 *27:12 *27:14 0.286982
9 *27:8 *620:B0 1.02002
10 *27:8 *27:12 0.574018
11 *27:9 *27:8 0.4305
12 *27:4 *27:9 0.143518
13 *27:5 *27:4 0.717483
14 *623:B0 *27:5 1.02002
*END

*D_NET *28 0.00052055

*CONN
*I *710:B I *C 66.625 60.065 *L 0.00481 *D NOR2X3M
*I *428:Y O *C 65.805 63.755 *L 0 *D BUFX2M

*CAP
1 *710:B 5.603e-05
2 *428:Y 5.58318e-05
3 *28:2 0.00016036
4 *28:3 8.79698e-05
5 *28:4 0.00016036

*RES
1 *28:2 *710:B 1.01999998
2 *28:2 *28:4 0.717499
3 *28:3 *28:4 1.01999998
4 *428:Y *28:3 0.548225
*END

*D_NET *29 0.00135305

*CONN
*I *693:A I *C 52.685 56.785 *L 0.00247 *D CLKNAND2X2M
*I *655:B I *C 51.455 57.605 *L 0.00214 *D AND4X2M
*I *429:Y O *C 48.995 53.505 *L 0 *D BUFX2M

*CAP
1 *693:A 5.60326e-05
2 *655:B 5.60326e-05
3 *429:Y 5.60326e-05
4 *29:3 0.00013989
5 *29:4 0.00013989
6 *29:5 8.79375e-05
7 *29:6 8.79375e-05
8 *29:7 0.000187303
9 *29:8 0.00027314
10 *29:9 8.43823e-05
11 *29:10 0.000100099
12 *29:11 8.43823e-05

*RES
1 *29:11 *693:A 1.01999998
2 *29:3 *655:B 1.01999998
3 *29:9 *29:11 0.430499
4 *29:4 *29:3 0.573999
5 *29:10 *29:9 1.01999998
6 *29:8 *29:4 1.01999998
7 *29:8 *29:10 0.430499
8 *29:7 *29:8 0.860999
9 *29:6 *29:7 1.01999998
10 *29:5 *29:6 0.286999
11 *429:Y *29:5 1.01999998
*END

*D_NET *30 0.00176169

*CONN
*I *499:A I *C 77.285 68.675 *L 0.0017 *D CLKBUFX2M
*I *430:Y O *C 76.465 76.465 *L 0 *D BUFX2M

*CAP
1 *499:A 5.60363e-05
2 *430:Y 5.60363e-05
3 *30:2 0.00071922
4 *30:3 0.00071922
5 *30:5 4.58519e-05
6 *30:6 8.26716e-05
7 *30:7 8.26716e-05

*RES
1 *30:3 *499:A 1.01998
2 *30:3 *30:2 2.72650003
3 *30:7 *30:2 1.01998
4 *30:6 *30:7 0.28702
5 *30:5 *30:6 1.01998
6 *30:5 *430:Y 1.01998
7 *30:4 *30:5 0.204271
*END

*D_NET *31 0.00130285

*CONN
*I *535:A I *C 24.395 62.935 *L 0.00276 *D BUFX4M
*I *431:Y O *C 19.475 64.985 *L 0 *D BUFX2M

*CAP
1 *535:A 5.60277e-05
2 *431:Y 5.60277e-05
3 *31:2 0.00036065
4 *31:3 0.00036065
5 *31:4 0.000211822
6 *31:5 0.000211822
7 *31:7 4.58524e-05

*RES
1 *31:5 *535:A 1.01999
2 *31:5 *31:4 0.717509
3 *31:2 *31:4 1.01999
4 *31:3 *31:2 1.722
5 *31:7 *31:3 1.01999
6 *31:7 *431:Y 1.01999
7 *31:6 *31:7 0.204267
*END

*D_NET *32 0.00093861

*CONN
*I *607:A I *C 63.345 46.125 *L 0.00584 *D NOR2X4M
*I *432:Y O *C 60.065 42.025 *L 0 *D BUFX2M

*CAP
1 *607:A 5.60308e-05
2 *432:Y 5.60308e-05
3 *32:2 0.00023233
4 *32:3 0.00023233
5 *32:4 0.000158021
6 *32:5 0.000158021
7 *32:7 4.58492e-05

*RES
1 *32:5 *432:Y 1.02
2 *32:5 *32:4 1.0045
3 *32:3 *32:4 1.02
4 *32:3 *32:2 1.148
5 *32:7 *607:A 1.02
6 *32:7 *32:2 1.02
7 *32:6 *32:7 0.204267
*END

*D_NET *33 0.00132396

*CONN
*I *617:D I *C 77.285 37.105 *L 0.00116 *D DFFRQX2M
*I *433:Y O *C 73.595 35.055 *L 0 *D BUFX2M

*CAP
1 *617:D 5.60274e-05
2 *433:Y 5.60274e-05
3 *33:2 0.0003946
4 *33:3 0.0003946
5 *33:4 9.43524e-05
6 *33:5 9.43524e-05
7 *33:6 0.000116998
8 *33:7 0.000116998

*RES
1 *33:7 *617:D 1.02
2 *33:6 *33:7 0.430493
3 *33:2 *33:6 1.02
4 *33:3 *33:2 1.29149997
5 *33:5 *33:3 1.02
6 *33:4 *33:5 0.287009
7 *433:Y *33:4 1.02
*END

*D_NET *34 0.00107626

*CONN
*I *589:A0 I *C 40.795 19.885 *L 0.0012 *D AO22XLM
*I *434:Y O *C 39.565 24.805 *L 0 *D BUFX2M

*CAP
1 *589:A0 5.60286e-05
2 *434:Y 5.60286e-05
3 *34:2 0.000284587
4 *34:3 0.00035262
5 *34:4 0.000197512
6 *34:5 0.00012948

*RES
1 *34:5 *589:A0 1.02
2 *34:5 *34:4 0.430493
3 *34:2 *434:Y 1.02
4 *34:3 *34:4 0.430493
5 *34:3 *34:2 1.29149997
*END

*D_NET *35 0.00163279

*CONN
*I *598:B0 I *C 25.215 28.495 *L 0.00179 *D AO21X2M
*I *435:Y O *C 33.415 29.315 *L 0 *D BUFX2M

*CAP
1 *598:B0 5.60293e-05
2 *435:Y 5.60293e-05
3 *35:2 7.78593e-05
4 *35:3 7.78593e-05
5 *35:4 0.00065958
6 *35:5 0.00065958
7 *35:7 4.5844e-05

*RES
1 *35:3 *598:B0 1.02002
2 *35:3 *35:2 0.287017
3 *35:5 *35:2 1.02002
4 *35:5 *35:4 2.86999989
5 *35:7 *35:4 1.02002
6 *35:7 *435:Y 1.02002
7 *35:6 *35:7 0.204249
*END

*D_NET *36 0.00252438

*CONN
*I *584:D I *C 60.475 71.545 *L 0.00116 *D DFFRQX2M
*I *436:Y O *C 71.545 64.985 *L 0 *D BUFX2M

*CAP
1 *584:D 5.60293e-05
2 *436:Y 5.60293e-05
3 *36:2 0.000104128
4 *36:3 0.000104128
5 *36:4 0.00039874
6 *36:5 0.00039874
7 *36:6 0.00070329
8 *36:7 0.00070329

*RES
1 *36:3 *436:Y 1.02
2 *36:3 *36:2 0.287028
3 *36:7 *36:2 1.02
4 *36:4 *584:D 1.02
5 *36:6 *36:7 3.87450004
6 *36:5 *36:4 1.57851
7 *36:5 *36:6 1.02
*END

*D_NET *37 0.00126287

*CONN
*I *811:D I *C 47.765 65.805 *L 0.00115 *D DFFRX1M
*I *437:Y O *C 42.435 69.495 *L 0 *D BUFX2M

*CAP
1 *811:D 5.60329e-05
2 *437:Y 5.60329e-05
3 *37:2 0.000175211
4 *37:3 0.000175211
5 *37:4 7.03229e-05
6 *37:5 0.00032987
7 *37:6 7.03229e-05
8 *37:7 0.00032987

*RES
1 *37:3 *811:D 1.02
2 *37:3 *37:2 0.574002
3 *37:7 *37:2 1.02
4 *37:5 *37:7 1.86549997
5 *37:6 *437:Y 1.02
6 *37:4 *37:5 1.02
7 *37:4 *37:6 0.286987
*END

*D_NET *38 0.00216764

*CONN
*I *651:D I *C 17.015 34.235 *L 0.00116 *D DFFRQX2M
*I *438:Y O *C 29.315 36.285 *L 0 *D BUFX2M

*CAP
1 *651:D 5.60297e-05
2 *438:Y 5.60297e-05
3 *38:2 0.00086094
4 *38:3 0.00086094
5 *38:5 0.000122359
6 *38:6 0.000122359
7 *38:7 4.44954e-05
8 *38:8 4.44954e-05

*RES
1 *38:5 *651:D 1.02002
2 *38:5 *38:6 0.573991
3 *38:3 *38:6 1.02002
4 *38:3 *38:2 4.30499983
5 *38:8 *438:Y 1.02002
6 *38:7 *38:2 1.02002
7 *38:7 *38:8 0.143531
8 *38:4 *38:7 0.0675284
*END

*D_NET *39 0.00178444

*CONN
*I *521:A I *C 16.605 60.065 *L 0.00276 *D BUFX4M
*I *439:Y O *C 12.915 69.495 *L 0 *D BUFX2M

*CAP
1 *521:A 5.60297e-05
2 *439:Y 5.60297e-05
3 *39:2 0.000209141
4 *39:3 0.000209141
5 *39:4 0.00019604
6 *39:5 0.000203468
7 *39:6 0.00027767
8 *39:7 0.00027767
9 *39:8 0.000145909
10 *39:9 0.00015334

*RES
1 *39:8 *521:A 1.02
2 *39:8 *39:9 0.717502
3 *39:5 *39:9 0.143504
4 *39:5 *39:4 1.29149997
5 *39:7 *39:4 1.02
6 *39:6 *39:7 1.148
7 *39:2 *439:Y 1.02
8 *39:3 *39:6 1.02
9 *39:3 *39:2 0.861007
*END

*D_NET *40 0.00067829

*CONN
*I *572:A I *C 23.165 17.015 *L 0.00499 *D BUFX8M
*I *440:Y O *C 19.885 17.835 *L 0 *D BUFX2M

*CAP
1 *572:A 5.60302e-05
2 *440:Y 8.58601e-05
3 *40:2 0.000118001
4 *40:3 0.000174727
5 *40:4 5.74002e-05
6 *40:5 0.00018627

*RES
1 *40:4 *572:A 1.01999998
2 *40:4 *40:5 0.286999
3 *40:3 *40:5 0.717499
4 *40:2 *40:3 1.01999998
5 *440:Y *40:2 0.822338
*END

*D_NET *41 0.00032592

*CONN
*I *600:D I *C 74.825 19.885 *L 0.00116 *D DFFRQX2M
*I *441:Y O *C 73.595 19.475 *L 0 *D INVXLM

*CAP
1 *600:D 5.60306e-05
2 *441:Y 2.48203e-05
3 *41:2 6.35493e-05
4 *41:3 9.076e-05
5 *41:4 9.076e-05

*RES
1 *41:4 *600:D 1.01999998
2 *41:3 *41:4 0.286999
3 *41:2 *41:3 1.01999998
4 *441:Y *41:2 0.274113
*END

*D_NET *42 0.000767025

*CONN
*I *442:Y O *C 74.825 23.165 *L 0 *D INVXLM
*I *441:A I *C 73.185 19.885 *L 0.00127 *D INVXLM

*CAP
1 *442:Y 5.60313e-05
2 *441:A 5.60313e-05
3 *42:2 0.00025389
4 *42:3 0.000155379
5 *42:4 0.0001721
6 *42:5 7.35927e-05

*RES
1 *42:5 *442:Y 1.01999998
2 *42:4 *42:5 0.286999
3 *42:2 *42:4 0.573999
4 *42:3 *42:2 0.573999
5 *441:A *42:3 1.01999998
*END

*D_NET *43 0.00230319

*CONN
*I *793:B I *C 71.135 77.285 *L 0.00201 *D NAND2X1M
*I *597:B I *C 65.395 68.675 *L 0.00214 *D CLKXOR2X2M
*I *443:Y O *C 69.905 70.725 *L 0 *D BUFX2M

*CAP
1 *793:B 5.60346e-05
2 *597:B 5.60346e-05
3 *443:Y 5.60346e-05
4 *43:3 9.40173e-05
5 *43:4 0.000162056
6 *43:5 0.00053774
7 *43:6 0.000166668
8 *43:7 0.000337709
9 *43:8 0.000337709
10 *43:10 4.58435e-05
11 *43:11 0.000453339

*RES
1 *43:3 *793:B 1.02
2 *43:4 *43:3 0.430509
3 *43:11 *43:4 0.430509
4 *43:5 *43:11 1.86549997
5 *43:5 *443:Y 1.02
6 *43:6 *43:5 0.717496
7 *43:7 *43:6 1.02
8 *43:8 *43:7 1.57851
9 *43:10 *597:B 1.02
10 *43:10 *43:8 1.02
11 *43:9 *43:10 0.204267
*END

*D_NET *44 0.00164873

*CONN
*I *563:A I *C 50.635 51.455 *L 0.00499 *D BUFX8M
*I *444:Y O *C 52.685 46.535 *L 0 *D BUFX2M

*CAP
1 *563:A 0.000198442
2 *444:Y 8.08687e-05
3 *44:2 0.000113007
4 *44:3 0.00026742
5 *44:4 7.06673e-05
6 *44:5 0.00026742
7 *44:6 0.000230381
8 *44:5 *145:12 0.00021026
9 *44:3 *145:13 0.000210260003

*RES
1 *444:Y *44:2 0.822343
2 *44:3 *44:2 1.02
3 *44:3 *44:5 1.5785
4 *44:4 *44:5 1.02
5 *44:4 *44:6 0.274114
6 *563:A *44:6 2.19291425
*END

*D_NET *45 0.000931328

*CONN
*I *657:B0 I *C 71.135 34.235 *L 0.00579 *D OAI21X4M
*I *445:Y O *C 75.235 35.055 *L 0 *D BUFX2M

*CAP
1 *657:B0 5.60303e-05
2 *445:Y 5.60303e-05
3 *45:2 0.00019843
4 *45:3 0.00019843
5 *45:4 6.8178e-05
6 *45:5 6.8178e-05
7 *45:7 4.58507e-05
8 *45:2 *154:10 0.0001201
9 *45:3 *154:11 0.000120100002

*RES
1 *45:5 *657:B0 1.02
2 *45:5 *45:4 0.286996
3 *45:3 *45:4 1.02
4 *45:3 *45:2 1.43499994
5 *45:7 *45:2 1.02
6 *45:7 *445:Y 1.02
7 *45:6 *45:7 0.204271
*END

*D_NET *46 0.000948129

*CONN
*I *570:A I *C 32.185 11.275 *L 0.00499 *D BUFX8M
*I *446:Y O *C 36.285 12.095 *L 0 *D BUFX2M

*CAP
1 *570:A 5.60332e-05
2 *446:Y 4.96014e-05
3 *46:4 4.58495e-05
4 *46:5 0.00033453
5 *46:6 8.174e-05
6 *46:7 4.58495e-05
7 *46:8 0.00033453

*RES
1 *446:Y *46:6 0.548241
2 *46:3 *46:7 0.204267
3 *46:7 *46:6 1.01999
4 *46:8 *46:7 1.01999
5 *46:5 *46:8 1.722
6 *46:4 *570:A 1.01999
7 *46:4 *46:5 1.01999
8 *46:2 *46:4 0.204267
*END

*D_NET *47 0.000972898

*CONN
*I *484:A I *C 51.865 17.015 *L 0.00276 *D BUFX4M
*I *447:Y O *C 51.455 23.165 *L 0 *D CLKBUFX1M

*CAP
1 *484:A 5.60294e-05
2 *447:Y 2.51504e-05
3 *47:2 0.00041392
4 *47:3 0.00041392
5 *47:4 6.38802e-05

*RES
1 *47:3 *484:A 1.02
2 *47:3 *47:2 1.86549997
3 *47:4 *47:2 1.02
4 *447:Y *47:4 0.274121
*END

*D_NET *48 0.00133375

*CONN
*I *817:D I *C 42.845 11.275 *L 0.00116 *D DFFRX2M
*I *448:Y O *C 46.125 17.835 *L 0 *D BUFX2M

*CAP
1 *817:D 5.6031e-05
2 *448:Y 5.6031e-05
3 *48:2 0.0003606
4 *48:3 0.0003606
5 *48:4 0.000227321
6 *48:5 0.000227321
7 *48:7 4.58515e-05

*RES
1 *48:3 *817:D 1.01999
2 *48:3 *48:2 2.296
3 *48:5 *48:2 1.01999
4 *48:5 *48:4 1.148
5 *48:7 *48:4 1.01999
6 *48:7 *448:Y 1.01999
7 *48:6 *48:7 0.204284
*END

*D_NET *49 0.000561638

*CONN
*I *545:A I *C 55.965 54.325 *L 0.00499 *D BUFX8M
*I *449:Y O *C 55.555 58.015 *L 0 *D BUFX2M

*CAP
1 *545:A 5.603e-05
2 *449:Y 5.603e-05
3 *49:2 8.52905e-05
4 *49:3 7.78582e-05
5 *49:4 0.0001395
6 *49:5 0.00014693

*RES
1 *49:4 *545:A 1.01999998
2 *49:4 *49:5 0.573999
3 *49:3 *449:Y 1.01999998
4 *49:2 *49:5 0.1435
5 *49:2 *49:3 0.286999
*END

*D_NET *50 0.000957797

*CONN
*I *474:A I *C 18.655 19.885 *L 0.00127 *D INVXLM
*I *450:Y O *C 23.985 19.475 *L 0 *D INVXLM

*CAP
1 *474:A 5.6028e-05
2 *450:Y 5.6028e-05
3 *50:4 4.58511e-05
4 *50:5 0.00037702
5 *50:6 4.58511e-05
6 *50:7 0.00037702

*RES
1 *50:3 *50:6 0.0350123
2 *50:6 *450:Y 1.02
3 *50:7 *50:6 1.02
4 *50:5 *50:7 1.86549997
5 *50:4 *474:A 1.02
6 *50:4 *50:5 1.02
7 *50:2 *50:4 0.204267
*END

*D_NET *51 0.000521382

*CONN
*I *451:Y O *C 25.215 19.475 *L 0 *D INVXLM
*I *450:A I *C 23.575 19.885 *L 0.00127 *D INVXLM

*CAP
1 *451:Y 5.60286e-05
2 *450:A 5.60286e-05
3 *51:2 0.00015591
4 *51:3 5.7399e-05
5 *51:4 0.00014726
6 *51:5 4.87512e-05

*RES
1 *51:5 *451:Y 1.01999998
2 *51:3 *450:A 1.01999998
3 *51:4 *51:5 0.1435
4 *51:2 *51:3 0.286999
5 *51:2 *51:4 0.573999
*END

*D_NET *52 0.00108618

*CONN
*I *605:D I *C 40.385 80.155 *L 0.00116 *D DFFRQX2M
*I *452:Y O *C 42.435 75.235 *L 0 *D BUFX2M

*CAP
1 *605:D 5.60286e-05
2 *452:Y 5.60286e-05
3 *52:2 0.000123712
4 *52:3 0.00021479
5 *52:4 0.000169059
6 *52:5 0.000161629
7 *52:6 0.000103211
8 *52:7 0.000201719

*RES
1 *52:6 *452:Y 1.01999998
2 *52:6 *52:7 0.286999
3 *52:3 *52:7 0.573999
4 *52:5 *605:D 1.01999998
5 *52:3 *52:2 0.573999
6 *52:4 *52:5 0.860999
7 *52:4 *52:2 0.1435
*END

*D_NET *53 0.000836418

*CONN
*I *616:D I *C 52.275 37.105 *L 0.00116 *D DFFRQX2M
*I *453:Y O *C 55.145 35.055 *L 0 *D BUFX2M

*CAP
1 *616:D 5.60296e-05
2 *453:Y 5.60296e-05
3 *53:2 0.000119001
4 *53:3 8.121e-05
5 *53:4 0.00019492
6 *53:5 0.000103841
7 *53:6 4.82578e-05
8 *53:7 0.000177128

*RES
1 *53:6 *453:Y 1.01999998
2 *53:6 *53:7 0.1435
3 *53:4 *53:7 0.717499
4 *53:3 *616:D 1.01999998
5 *53:4 *53:5 0.286999
6 *53:2 *53:3 0.286999
7 *53:2 *53:5 0.286999
*END

*D_NET *54 0.000939283

*CONN
*I *536:A I *C 72.365 71.545 *L 0.00276 *D BUFX4M
*I *454:Y O *C 75.235 75.235 *L 0 *D BUFX2M

*CAP
1 *536:A 5.60318e-05
2 *454:Y 5.60318e-05
3 *54:2 0.000127708
4 *54:3 0.00031702
5 *54:4 0.000285901
6 *54:5 9.65887e-05

*RES
1 *54:5 *454:Y 1.01999998
2 *54:4 *54:5 0.286999
3 *54:3 *54:4 1.0045
4 *54:2 *54:3 0.573999
5 *536:A *54:2 1.01999998
*END

*D_NET *55 0.00158429

*CONN
*I *756:A1 I *C 20.295 44.895 *L 0.00137 *D AOI21BX2M
*I *455:Y O *C 16.195 52.275 *L 0 *D BUFX2M

*CAP
1 *756:A1 5.60274e-05
2 *455:Y 5.60274e-05
3 *55:2 0.000239118
4 *55:3 0.000239118
5 *55:4 0.00031566
6 *55:5 0.000181338
7 *55:6 0.000181338
8 *55:7 0.00031566

*RES
1 *55:5 *756:A1 1.02
2 *55:5 *55:6 1.148
3 *55:7 *55:6 1.02
4 *55:4 *55:7 1.43499994
5 *55:2 *455:Y 1.02
6 *55:3 *55:4 1.02
7 *55:3 *55:2 1.0045
*END

*D_NET *56 0.00287515

*CONN
*I *774:A1 I *C 35.055 71.545 *L 0.00197 *D AO22X2M
*I *684:SI I *C 18.655 71.545 *L 0.000896 *D SDFFRQX2M
*I *456:Y O *C 22.755 70.725 *L 0 *D BUFX2M

*CAP
1 *774:A1 5.60322e-05
2 *684:SI 5.60322e-05
3 *456:Y 5.60322e-05
4 *56:3 0.000100949
5 *56:4 0.000100949
6 *56:7 0.000284086
7 *56:8 4.58507e-05
8 *56:9 0.000454616
9 *56:10 0.000253147
10 *56:11 0.00056165
11 *56:12 0.000183334
12 *56:13 0.000500759
13 *56:14 4.58507e-05
14 *56:15 0.000175878

*RES
1 *56:14 *774:A1 1.02001
2 *56:6 *56:14 0.0349904
3 *56:15 *56:14 1.02001
4 *56:12 *56:15 0.860987
5 *56:3 *684:SI 1.02001
6 *56:12 *56:13 0.143498
7 *56:4 *56:3 0.286996
8 *56:11 *56:13 2.43950009
9 *56:7 *56:4 1.02001
10 *56:10 *56:11 0.430493
11 *56:7 *56:9 1.43502
12 *56:9 *56:10 1.00448
13 *56:8 *56:9 1.02001
14 *56:8 *456:Y 1.02001
15 *56:5 *56:8 0.204284
*END

*D_NET *57 0.00110632

*CONN
*I *537:A I *C 39.155 60.065 *L 0.00276 *D BUFX4M
*I *457:Y O *C 38.745 64.985 *L 0 *D BUFX2M

*CAP
1 *537:A 5.60272e-05
2 *457:Y 5.60272e-05
3 *57:2 0.000408488
4 *57:3 0.00041592
5 *57:4 8.12102e-05
6 *57:5 8.8642e-05

*RES
1 *57:4 *537:A 1.02
2 *57:4 *57:5 0.286996
3 *57:2 *457:Y 1.02
4 *57:3 *57:5 0.143509
5 *57:3 *57:2 1.43499994
*END

*D_NET *58 0.0017633

*CONN
*I *568:A I *C 50.635 19.885 *L 0.00499 *D BUFX8M
*I *458:Y O *C 55.145 12.095 *L 0 *D BUFX2M

*CAP
1 *568:A 5.60311e-05
2 *458:Y 2.65518e-05
3 *58:2 0.000250522
4 *58:3 0.000250522
5 *58:4 0.000160491
6 *58:5 0.000160491
7 *58:6 0.00028007
8 *58:7 6.52792e-05
9 *58:8 0.00028007
10 *58:8 *160:6 5.299e-05
11 *58:6 *160:7 5.299e-05
12 *58:2 *160:3 4.745e-05
13 *58:3 *160:4 4.745e-05
14 *58:2 *160:4 1.62e-05
15 *58:3 *160:5 1.62000001e-05

*RES
1 *458:Y *58:7 0.274107
2 *58:5 *58:7 1.01999
3 *58:5 *58:4 1.14801
4 *58:8 *58:4 1.01999
5 *58:2 *568:A 1.01999
6 *58:6 *58:8 1.722
7 *58:3 *58:2 1.57851
8 *58:3 *58:6 1.01999
*END

*D_NET *59 0.00154512

*CONN
*I *596:D I *C 46.535 56.375 *L 0.00103 *D SDFFRQX2M
*I *459:Y O *C 43.255 63.755 *L 0 *D BUFX2M

*CAP
1 *596:D 5.60281e-05
2 *459:Y 5.60281e-05
3 *59:2 0.000223502
4 *59:3 0.000223502
5 *59:4 0.000198652
6 *59:5 0.000198652
7 *59:6 0.00029438
8 *59:7 0.00029438

*RES
1 *59:3 *596:D 1.02
2 *59:3 *59:2 1.0045
3 *59:6 *59:2 1.02
4 *59:7 *59:6 1.148
5 *59:4 *459:Y 1.02
6 *59:5 *59:7 1.02
7 *59:5 *59:4 1.148
*END

*D_NET *60 0.00202114

*CONN
*I *592:D I *C 18.655 39.975 *L 0.00116 *D DFFRQX2M
*I *460:Y O *C 26.445 46.535 *L 0 *D BUFX2M

*CAP
1 *592:D 5.60255e-05
2 *460:Y 5.60255e-05
3 *60:2 0.000327363
4 *60:3 0.000327363
5 *60:4 0.000462785
6 *60:5 0.00047024
7 *60:6 9.17878e-05
8 *60:7 8.43325e-05
9 *60:8 7.26079e-05
10 *60:9 7.26079e-05

*RES
1 *60:2 *460:Y 1.02001
2 *60:3 *60:2 1.43502
3 *60:4 *60:3 1.02001
4 *60:5 *60:4 2.43950009
5 *60:6 *60:5 0.143498
6 *60:7 *60:6 0.286996
7 *60:9 *60:7 1.02001
8 *60:8 *60:9 0.286996
9 *592:D *60:8 1.02001
*END

*D_NET *61 0.00032592

*CONN
*I *614:D I *C 74.005 25.625 *L 0.00116 *D DFFRQX2M
*I *461:Y O *C 72.775 24.805 *L 0 *D BUFX2M

*CAP
1 *614:D 5.60306e-05
2 *461:Y 2.48203e-05
3 *61:2 6.35493e-05
4 *61:3 9.076e-05
5 *61:4 9.076e-05

*RES
1 *61:4 *614:D 1.01999998
2 *61:3 *61:4 0.286999
3 *61:2 *61:3 1.01999998
4 *461:Y *61:2 0.274113
*END

*D_NET *62 0.00138795

*CONN
*I *548:A I *C 58.015 62.935 *L 0.00276 *D BUFX4M
*I *462:Y O *C 56.785 70.725 *L 0 *D BUFX2M

*CAP
1 *548:A 5.60282e-05
2 *462:Y 5.60282e-05
3 *62:2 0.00057606
4 *62:3 0.000507972
5 *62:4 0.000129979
6 *62:5 6.18912e-05

*RES
1 *62:3 *548:A 1.01998
2 *62:3 *62:2 2.58299994
3 *62:5 *462:Y 1.01998
4 *62:4 *62:2 0.430513
5 *62:4 *62:5 0.143504
*END

*D_NET *63 0.00109991

*CONN
*I *539:A I *C 64.575 77.285 *L 0.00276 *D BUFX4M
*I *463:Y O *C 62.115 82.205 *L 0 *D BUFX2M

*CAP
1 *539:A 5.60267e-05
2 *463:Y 0.000149218
3 *63:2 0.00035665
4 *63:3 0.00035665
5 *63:4 0.000181359

*RES
1 *63:3 *539:A 1.01999
2 *63:3 *63:2 1.722
3 *63:4 *63:2 1.01999
4 *463:Y *63:4 1.6447
*END

*D_NET *64 0.00102138

*CONN
*I *812:D I *C 50.225 80.155 *L 0.00115 *D DFFRX1M
*I *464:Y O *C 50.225 75.235 *L 0 *D BUFX2M

*CAP
1 *812:D 5.603e-05
2 *464:Y 5.603e-05
3 *64:2 0.000177669
4 *64:3 0.000177669
5 *64:4 0.000246628
6 *64:5 0.00025406
7 *64:6 5.32892e-05

*RES
1 *64:6 *812:D 1.02
2 *64:4 *464:Y 1.02
3 *64:3 *64:6 0.1435
4 *64:4 *64:5 1.148
5 *64:2 *64:3 0.574
6 *64:2 *64:5 0.1435
*END

*D_NET *65 0.00322276

*CONN
*I *734:C I *C 21.115 66.625 *L 0.00373 *D XOR3X1M
*I *465:Y O *C 16.605 82.205 *L 0 *D BUFX2M

*CAP
1 *734:C 5.60264e-05
2 *465:Y 2.79323e-05
3 *65:2 0.00066276
4 *65:3 0.000655337
5 *65:4 6.03042e-05
6 *65:5 6.03042e-05
7 *65:6 0.00032737
8 *65:7 0.00032737
9 *65:8 6.66552e-05
10 *65:9 9.79248e-05
11 *65:10 9.04816e-05
12 *65:11 0.000242633
13 *65:12 0.000242633
14 *65:2 *101:26 0.00013689
15 *65:3 *101:27 0.00013689
16 *65:4 *101:38 1.562e-05
17 *65:5 *101:37 1.56200046e-05

*RES
1 *65:3 *734:C 1.02002
2 *65:3 *65:2 3.44400001
3 *65:2 *65:11 0.143518
4 *65:11 *65:12 1.2915
5 *65:9 *65:12 0.143518
6 *65:9 *65:10 0.4305
7 *65:6 *65:10 1.02002
8 *65:7 *65:6 1.43502
9 *65:5 *65:7 1.02002
10 *65:5 *65:4 0.286982
11 *65:8 *65:4 1.02002
12 *465:Y *65:8 0.274107
*END

*D_NET *66 0.00307923

*CONN
*I *723:C I *C 11.275 66.625 *L 0.00373 *D XOR3X1M
*I *466:Y O *C 24.395 70.725 *L 0 *D BUFX2M

*CAP
1 *723:C 5.6034e-05
2 *466:Y 8.37664e-05
3 *66:2 0.000227782
4 *66:3 0.000227782
5 *66:4 0.00088829
6 *66:5 0.00088829
7 *66:7 4.58547e-05
8 *66:8 0.000115904
9 *66:4 *101:23 3.347e-05
10 *66:5 *101:24 3.347e-05
11 *66:4 *101:24 4.46e-06
12 *66:5 *101:25 4.46e-06
13 *66:2 *101:18 0.00010034
14 *66:3 *101:19 0.000100339993
15 *66:4 *10:5 0.00013449
16 *66:5 *10:6 0.000134490006

*RES
1 *466:Y *66:8 0.822318
2 *66:2 *66:8 1.01997
3 *66:3 *66:2 1.43503
4 *66:4 *66:3 1.01997
5 *66:5 *66:4 5.02250004
6 *66:7 *723:C 1.01997
7 *66:7 *66:5 1.01997
8 *66:6 *66:7 0.204238
*END

*D_NET *67 0.0023008

*CONN
*I *815:D I *C 64.985 74.415 *L 0.00115 *D DFFRX1M
*I *467:Y O *C 72.365 69.495 *L 0 *D BUFX2M

*CAP
1 *815:D 5.60305e-05
2 *467:Y 5.60305e-05
3 *67:2 0.000390011875
4 *67:3 0.000390011875
5 *67:4 4.96271e-05
6 *67:5 4.96271e-05
7 *67:6 0.000316628
8 *67:7 0.000278718
9 *67:8 0.0003381
10 *67:9 0.000376015

*RES
1 *67:2 *815:D 1.02
2 *67:3 *67:2 1.29149
3 *67:7 *67:3 1.02
4 *67:7 *67:6 1.43499994
5 *67:9 *67:6 0.286996
6 *67:9 *67:8 1.148
7 *67:4 *67:8 1.02
8 *67:5 *67:4 0.143509
9 *67:5 *467:Y 1.02
10 *67:10 *67:5 0.0675284
*END

*D_NET *68 0.00122266

*CONN
*I *608:B1 I *C 23.575 42.435 *L 0.0119 *D OAI2BB2X8M
*I *468:Y O *C 17.425 43.255 *L 0 *D BUFX4M

*CAP
1 *608:B1 5.60309e-05
2 *468:Y 2.51534e-05
3 *68:2 0.00049295
4 *68:3 0.00049295
5 *68:6 6.38838e-05
6 *68:7 4.58462e-05
7 *68:8 4.58462e-05

*RES
1 *68:8 *608:B1 1.01999
2 *68:5 *68:8 0.204284
3 *68:2 *68:8 1.01999
4 *68:3 *68:2 2.296
5 *68:6 *468:Y 0.274107
6 *68:7 *68:3 1.01999
7 *68:7 *68:6 1.01999
8 *68:4 *68:7 0.204284
*END

*D_NET *69 0.00287552

*CONN
*I *739:B I *C 28.495 65.395 *L 0.00211 *D MX3X1M
*I *685:SI I *C 23.985 57.195 *L 0.000896 *D SDFFRQX2M
*I *469:Y O *C 22.345 53.505 *L 0 *D CLKBUFX2M

*CAP
1 *739:B 5.60293e-05
2 *685:SI 5.60293e-05
3 *469:Y 0.000100593
4 *69:3 0.000105327
5 *69:4 0.000105327
6 *69:5 0.00015986
7 *69:6 0.000167289
8 *69:7 0.000254808
9 *69:8 0.000254808
10 *69:9 0.00013273
11 *69:10 0.00013192
12 *69:11 0.000189901
13 *69:12 7.9651e-05
14 *69:13 0.00033573
15 *69:14 0.00033573
16 *69:12 *2:70 6.119e-05
17 *69:11 *2:71 6.119e-05
18 *69:11 *2:70 0.00011998
19 *69:10 *2:71 0.00011998
20 *69:8 *2:70 2.372e-05
21 *69:7 *2:71 2.37199882e-05

*RES
1 *69:3 *739:B 1.01999
2 *69:4 *69:3 0.430489
3 *69:14 *69:4 1.01999
4 *69:13 *69:14 1.57850003
5 *69:5 *69:13 1.01999
6 *69:6 *69:5 0.717498
7 *69:8 *69:6 0.143504
8 *69:7 *69:8 1.29149
9 *69:7 *69:12 0.143504
10 *69:11 *685:SI 1.01999
11 *69:11 *69:12 0.430489
12 *69:10 *69:11 0.861002
13 *69:9 *69:10 1.01999
14 *469:Y *69:9 1.09647
*END

*D_NET *70 4.964e-05

*CONN
*I *565:A I *C 19.065 48.585 *L 0.00235 *D CLKBUFX6M
*I *470:Y O *C 18.655 47.765 *L 0 *D BUFX2M

*CAP
1 *565:A 2.482e-05
2 *470:Y 2.482e-05

*RES
1 *470:Y *565:A 0.274114
*END

*D_NET *71 0.00249631

*CONN
*I *761:A I *C 62.115 31.365 *L 0.002 *D INVX1M
*I *644:A1 I *C 67.445 31.365 *L 0.0117 *D OAI21X8M
*I *471:Y O *C 61.705 37.515 *L 0 *D BUFX4M

*CAP
1 *761:A 5.60314e-05
2 *644:A1 5.60314e-05
3 *471:Y 5.60314e-05
4 *71:3 0.000107367
5 *71:4 0.000107367
6 *71:5 0.000369691
7 *71:6 0.00037712
8 *71:7 0.000145721
9 *71:8 0.000160268
10 *71:9 0.00027259
11 *71:10 0.00027259
12 *71:10 *110:3 0.00025775
13 *71:9 *110:4 0.000257749987

*RES
1 *71:4 *644:A1 1.02
2 *71:4 *71:3 0.430509
3 *71:10 *71:3 1.02
4 *71:7 *761:A 1.02
5 *71:9 *71:10 1.86549997
6 *71:7 *71:8 0.430509
7 *71:8 *71:9 1.02
8 *71:5 *471:Y 1.02
9 *71:6 *71:8 0.143493
10 *71:6 *71:5 1.72201
*END

*D_NET *72 0.00156801

*CONN
*I *808:D I *C 46.945 14.145 *L 0.00115 *D DFFRX1M
*I *472:Y O *C 44.075 19.065 *L 0 *D BUFX2M

*CAP
1 *808:D 5.6033e-05
2 *472:Y 5.6033e-05
3 *72:2 0.000289723
4 *72:3 0.000327429395
5 *72:4 0.000149268
6 *72:5 0.000111561
7 *72:6 0.00026606
8 *72:7 0.00026606
9 *72:9 4.58506e-05

*RES
1 *72:5 *808:D 1.02
2 *72:5 *72:4 0.573998
3 *72:4 *72:3 0.287009
4 *72:3 *72:2 1.148
5 *72:6 *72:2 1.02
6 *72:7 *72:6 1.29149997
7 *72:9 *72:7 1.02
8 *72:9 *472:Y 1.02
9 *72:8 *72:9 0.20428
*END

*D_NET *73 0.000890261

*CONN
*I *601:D I *C 25.625 14.145 *L 0.00116 *D DFFRQX2M
*I *473:Y O *C 22.345 17.425 *L 0 *D INVXLM

*CAP
1 *601:D 5.60295e-05
2 *473:Y 5.60295e-05
3 *73:2 8.76307e-05
4 *73:3 0.00021098
5 *73:4 8.76307e-05
6 *73:5 9.04894e-05
7 *73:6 9.04894e-05
8 *73:7 0.00021098

*RES
1 *73:5 *601:D 1.02
2 *73:5 *73:6 0.4305
3 *73:7 *73:6 1.02
4 *73:3 *73:7 1.148
5 *73:4 *473:Y 1.02
6 *73:2 *73:3 1.02
7 *73:2 *73:4 0.4305
*END

*D_NET *74 0.000789307

*CONN
*I *474:Y O *C 19.065 19.475 *L 0 *D INVXLM
*I *473:A I *C 21.935 17.015 *L 0.00127 *D INVXLM

*CAP
1 *474:Y 5.60292e-05
2 *473:A 5.086e-05
3 *74:2 0.000134199
4 *74:3 6.60487e-05
5 *74:4 0.000121021
6 *74:5 0.00018174
7 *74:6 8.30011e-05
8 *74:7 4.449e-05
9 *74:8 5.19194e-05

*RES
1 *74:6 *473:A 0.822338
2 *74:7 *74:6 1.01999998
3 *74:7 *74:8 0.1435
4 *74:4 *74:8 0.1435
5 *74:4 *74:5 0.430499
6 *74:3 *474:Y 1.01999998
7 *74:2 *74:5 0.430499
8 *74:2 *74:3 0.286999
*END

*D_NET *75 0.00416384

*CONN
*I *823:A1N I *C 36.285 17.015 *L 0.00118 *D AO2B2X2M
*I *663:A I *C 37.925 19.885 *L 0.00312 *D NOR2X2M
*I *650:A I *C 26.035 17.015 *L 0.0022 *D OR3X2M
*I *599:A0 I *C 43.665 17.015 *L 0.00567 *D OAI21X4M
*I *475:Y O *C 32.185 20.295 *L 0 *D BUFX4M

*CAP
1 *823:A1N 5.60298e-05
2 *663:A 5.60298e-05
3 *650:A 5.60298e-05
4 *599:A0 5.60298e-05
5 *475:Y 5.60298e-05
6 *75:5 0.000119875
7 *75:6 0.000119875
8 *75:7 0.000385668
9 *75:8 0.000299396
10 *75:9 0.000416526
11 *75:10 0.000363848
12 *75:11 0.000101577
13 *75:12 9.41213e-05
14 *75:13 0.00014149
15 *75:14 0.00014149
16 *75:15 0.000466605
17 *75:16 0.00056034125
18 *75:17 6.98214e-05
19 *75:18 6.98214e-05
20 *75:19 8.18602e-05
21 *75:20 0.00011595
22 *75:21 0.00011595
23 *75:22 0.000109725
24 *75:23 0.000109725

*RES
1 *75:22 *599:A0 1.02
2 *75:21 *663:A 1.02
3 *75:22 *75:23 0.574002
4 *75:14 *823:A1N 1.02
5 *75:20 *75:21 0.430509
6 *75:15 *75:23 1.02
7 *75:14 *75:13 0.574002
8 *75:16 *75:20 1.02
9 *75:16 *75:15 1.86549997
10 *75:7 *75:13 1.02
11 *75:7 *75:16 0.574002
12 *75:8 *75:7 1.148
13 *75:5 *475:Y 1.02
14 *75:19 *75:8 0.143493
15 *75:6 *75:5 0.717496
16 *75:9 *75:19 0.286987
17 *75:9 *75:6 1.02
18 *75:10 *75:9 1.72201
19 *75:11 *75:10 0.143493
20 *75:12 *75:11 0.430509
21 *75:18 *75:12 1.02
22 *75:17 *75:18 0.286987
23 *650:A *75:17 1.02
*END

*D_NET *76 0.000611663

*CONN
*I *585:AN I *C 42.025 34.235 *L 0.00276 *D NOR2BX4M
*I *476:Y O *C 40.795 36.285 *L 0 *D BUFX2M

*CAP
1 *585:AN 5.60302e-05
2 *476:Y 5.60302e-05
3 *76:2 5.03888e-05
4 *76:3 0.000118541
5 *76:4 0.00013126
6 *76:5 0.00019941

*RES
1 *76:4 *585:AN 1.01999998
2 *76:4 *76:5 0.573999
3 *76:2 *476:Y 1.01999998
4 *76:3 *76:5 0.430499
5 *76:3 *76:2 0.1435
*END

*D_NET *77 0.0133036

*CONN
*I *692:A I *C 43.255 39.975 *L 0.00435 *D CLKINVX4M
*I *678:A I *C 53.505 42.435 *L 0.00584 *D NOR2X4M
*I *635:SE I *C 67.035 39.975 *L 0.00231 *D SDFFRQX2M
*I *634:SE I *C 69.085 14.145 *L 0.00231 *D SDFFRQX2M
*I *633:SE I *C 69.085 42.845 *L 0.00231 *D SDFFRQX2M
*I *632:SE I *C 69.905 39.975 *L 0.00231 *D SDFFRQX2M
*I *631:SE I *C 55.555 39.975 *L 0.00231 *D SDFFRQX2M
*I *630:SE I *C 58.425 14.145 *L 0.00231 *D SDFFRQX2M
*I *628:SE I *C 73.185 17.015 *L 0.00231 *D SDFFRQX2M
*I *627:SE I *C 66.215 17.015 *L 0.00231 *D SDFFRQX2M
*I *607:B I *C 64.165 45.715 *L 0.00607 *D NOR2X4M
*I *477:Y O *C 40.385 40.795 *L 0 *D CLKBUFX12M

*CAP
1 *692:A 0.000160112
2 *678:A 5.60357e-05
3 *635:SE 5.60357e-05
4 *634:SE 5.60357e-05
5 *633:SE 5.60357e-05
6 *632:SE 5.60357e-05
7 *631:SE 5.60357e-05
8 *630:SE 5.60357e-05
9 *628:SE 5.60357e-05
10 *627:SE 5.60357e-05
11 *607:B 5.60357e-05
12 *477:Y 0.000104092
13 *77:12 8.12692e-05
14 *77:13 0.000111623
15 *77:14 0.000375195
16 *77:15 0.000375195
17 *77:16 0.00108938
18 *77:17 0.000828118
19 *77:18 0.00010135
20 *77:19 0.00010135
21 *77:20 0.000270188
22 *77:21 0.000270188
23 *77:22 0.000410568
24 *77:23 0.000191263
25 *77:24 0.000271335
26 *77:25 7.85431e-05
27 *77:26 7.85431e-05
28 *77:27 7.19604e-05
29 *77:28 7.19604e-05
30 *77:29 7.23594e-05
31 *77:30 6.49289e-05
32 *77:31 9.5914e-05
33 *77:32 7.0963e-05
34 *77:33 6.16542e-05
35 *77:34 6.91013e-05
36 *77:35 5.40576e-05
37 *77:36 0.00012916
38 *77:37 0.00012916
39 *77:38 6.96665e-05
40 *77:39 6.96665e-05
41 *77:40 0.000432195
42 *77:41 0.000432195
43 *77:42 0.000232255
44 *77:43 0.000111057
45 *77:44 0.000123292
46 *77:45 0.000115828
47 *77:46 0.000373998
48 *77:47 0.000373998
49 *77:48 0.000303018
50 *77:49 0.000103893
51 *77:50 0.000101582
52 *77:51 0.00022278
53 *77:53 0.000119186
54 *77:54 0.000119186
55 *77:55 0.000170617
56 *77:56 0.000178081
57 *77:57 0.000282938
58 *77:58 0.00011242
59 *77:59 0.000298996
60 *77:60 0.00044664
61 *77:61 0.000392682
62 *77:62 0.000208285
63 *77:63 0.00018611
64 *77:64 4.58625e-05
65 *77:65 0.00044664
66 *77:20 *153:14 2.229e-05
67 *77:21 *153:10 2.229e-05
68 *77:20 *153:10 2.229e-05
69 *77:21 *153:9 2.229e-05
70 *77:22 *153:16 4.08e-05
71 *77:23 *153:15 4.08e-05
72 *77:22 *153:15 0.00014081
73 *77:23 *153:13 0.00014081
74 *77:24 *153:12 5.555e-05
75 *77:22 *153:11 5.55499828e-05
76 *77:29 *119:4 1.62e-05
77 *77:30 *119:5 1.62e-05
78 *77:31 *119:4 3.817e-05
79 *77:32 *119:5 3.817e-05
80 *77:33 *119:11 1.62e-05
81 *77:34 *119:10 1.62e-05
82 *77:24 *119:2 7.114e-05
83 *77:22 *119:3 7.114e-05
84 *77:14 *119:2 1.687e-05
85 *77:15 *119:3 1.68700006e-05

*RES
1 *477:Y *692:A 1.09645
2 *77:53 *692:A 1.02001
3 *77:53 *77:54 0.573982
4 *77:45 *77:54 1.02001
5 *77:45 *77:44 0.860974
6 *77:44 *77:41 0.143496
7 *77:38 *678:A 1.02001
8 *77:41 *77:40 2.1525
9 *77:37 *631:SE 1.02001
10 *77:39 *77:38 0.286991
11 *77:43 *77:40 0.143496
12 *77:37 *77:36 0.573982
13 *77:42 *77:39 1.02001
14 *77:43 *77:42 0.430487
15 *77:30 *632:SE 1.02001
16 *77:33 *633:SE 1.02001
17 *77:51 *77:36 1.02001
18 *77:42 *77:51 0.717478
19 *77:30 *77:29 0.286991
20 *77:34 *77:33 0.286991
21 *77:51 *77:50 0.430487
22 *77:32 *77:29 0.143496
23 *77:34 *77:35 0.143496
24 *77:50 *77:47 0.143496
25 *77:19 *635:SE 1.02001
26 *77:32 *77:31 0.286991
27 *77:31 *77:35 0.143496
28 *77:47 *77:46 2.00901
29 *77:19 *77:18 0.573982
30 *77:63 *77:31 1.02001
31 *77:25 *630:SE 1.02001
32 *77:49 *77:46 0.143496
33 *77:61 *77:18 1.02001
34 *77:61 *77:63 0.860974
35 *77:26 *77:25 0.286991
36 *77:57 *607:B 1.02001
37 *77:49 *77:48 0.573982
38 *77:48 *77:61 1.00447
39 *77:55 *77:26 1.02001
40 *77:16 *77:57 1.43502
41 *77:16 *77:48 1.02001
42 *77:55 *77:56 0.717478
43 *77:17 *77:16 4.44850016
44 *77:21 *77:56 0.143496
45 *77:27 *634:SE 1.02001
46 *77:17 *77:12 0.143496
47 *77:21 *77:20 1.57852
48 *77:28 *77:27 0.286991
49 *77:13 *77:12 0.430487
50 *77:20 *77:58 0.143496
51 *77:62 *77:28 1.02001
52 *77:13 *77:14 0.286991
53 *77:58 *77:59 0.430487
54 *77:59 *77:62 1.00447
55 *77:15 *77:14 2.00901
56 *77:23 *77:59 1.02001
57 *77:15 *77:24 0.286991
58 *77:22 *627:SE 1.02001
59 *77:23 *77:22 1.29153
60 *77:22 *77:24 1.72202
61 *77:60 *77:22 1.02001
62 *77:60 *77:65 2.43949
63 *77:64 *628:SE 1.02001
64 *77:64 *77:65 1.02001
65 *77:52 *77:64 0.0350254
*END

*D_NET *78 0.00494789

*CONN
*I *647:A0 I *C 69.495 28.905 *L 0.0116 *D OAI21X8M
*I *644:A0 I *C 70.315 30.955 *L 0.0116 *D OAI21X8M
*I *638:A0 I *C 57.605 23.165 *L 0.00909 *D OAI21X6M
*I *625:A0 I *C 71.135 22.755 *L 0.00567 *D OAI21X4M
*I *478:Y O *C 60.475 29.315 *L 0 *D CLKINVX12M

*CAP
1 *647:A0 0.000112063
2 *644:A0 5.60315e-05
3 *638:A0 5.60315e-05
4 *625:A0 5.60315e-05
5 *478:Y 5.60315e-05
6 *78:5 0.000570190273
7 *78:6 0.000560002
8 *78:7 0.000225457
9 *78:8 9.65848e-05
10 *78:9 0.000460172
11 *78:10 0.000460172
12 *78:11 0.000342541
13 *78:12 0.000251837
14 *78:13 0.000385921
15 *78:14 0.000385921
16 *78:15 9.99867e-05
17 *78:16 0.000107452
18 *78:17 6.45232e-05
19 *78:18 6.45232e-05
20 *78:21 4.58519e-05
21 *78:22 0.00011242
22 *78:23 0.00011242
23 *78:24 0.00011242
24 *78:25 0.000153295

*RES
1 *78:8 *625:A0 1.02
2 *78:8 *78:7 0.286987
3 *78:6 *78:7 0.717496
4 *78:25 *644:A0 1.02
5 *78:6 *78:5 1.86549997
6 *78:5 *78:25 0.717496
7 *647:A0 *78:5 1.02
8 *78:17 *647:A0 1.02
9 *78:20 *78:18 0.0675196
10 *78:18 *78:17 0.143493
11 *78:15 *78:18 1.02
12 *78:16 *78:15 0.286987
13 *78:24 *78:16 0.143493
14 *78:23 *78:24 0.430509
15 *78:10 *638:A0 1.02
16 *78:13 *78:23 0.143493
17 *78:10 *78:9 1.72201
18 *78:14 *78:13 1.86549997
19 *78:12 *78:9 1.02
20 *78:14 *78:22 0.143493
21 *78:12 *78:11 1.148
22 *78:11 *78:22 0.430509
23 *78:21 *78:11 1.02
24 *78:21 *478:Y 1.02
25 *78:19 *78:21 0.0350123
*END

*D_NET *79 0.000678721

*CONN
*I *479:Y O *C 60.065 25.215 *L 0 *D INVX4M
*I *478:A I *C 61.295 28.495 *L 0.0128 *D CLKINVX12M

*CAP
1 *479:Y 2.80613e-05
2 *478:A 5.60299e-05
3 *79:2 6.67905e-05
4 *79:3 0.00026392
5 *79:4 0.00026392

*RES
1 *79:4 *478:A 1.01999998
2 *79:3 *79:4 0.860999
3 *79:2 *79:3 1.01999998
4 *479:Y *79:2 0.274113
*END

*D_NET *80 0.00727423

*CONN
*I *661:A0 I *C 68.675 25.625 *L 0.00567 *D OAI21X4M
*I *660:A0 I *C 52.685 34.235 *L 0.00567 *D OAI21X4M
*I *657:A0 I *C 69.495 34.235 *L 0.00567 *D OAI21X4M
*I *646:A0 I *C 60.885 23.165 *L 0.0116 *D OAI21X8M
*I *480:Y O *C 57.195 30.545 *L 0 *D BUFX10M

*CAP
1 *661:A0 5.60313e-05
2 *660:A0 5.60313e-05
3 *657:A0 5.60313e-05
4 *646:A0 5.60313e-05
5 *480:Y 5.60313e-05
6 *80:5 0.000358436
7 *80:6 0.000388801
8 *80:7 0.0001435
9 *80:8 0.000105715
10 *80:9 0.00010615
11 *80:10 9.87167e-05
12 *80:11 0.000219842
13 *80:12 0.000219842
14 *80:13 0.0004255
15 *80:14 0.000432934
16 *80:15 0.000252211
17 *80:16 0.000259638
18 *80:17 0.000379141
19 *80:18 0.000299274
20 *80:19 0.000281953
21 *80:20 0.000439288477
22 *80:21 0.000101592
23 *80:22 0.000401362
24 *80:25 4.58493e-05
25 *80:26 0.000235299
26 *80:27 5.34171e-05
27 *80:28 4.66202e-05
28 *80:29 4.66202e-05
29 *80:19 *346:26 0.00010002
30 *80:20 *346:24 0.00010002
31 *80:20 *346:26 2.008e-05
32 *80:22 *346:24 2.008e-05
33 *80:15 *346:9 7.951e-05
34 *80:16 *346:10 7.951e-05
35 *80:15 *346:18 4.185e-05
36 *80:16 *346:19 4.185e-05
37 *80:5 *346:23 9.59e-06
38 *80:6 *346:7 9.59000618e-06
39 *80:20 *158:10 2.478e-05
40 *80:22 *158:11 2.478e-05
41 *80:22 *158:8 0.0001791
42 *80:26 *158:9 0.000179100004
43 *80:13 *119:9 0.00037126
44 *80:14 *119:8 0.000371260014

*RES
1 *80:8 *646:A0 1.02002
2 *80:10 *661:A0 1.02002
3 *80:8 *80:7 0.430482
4 *80:10 *80:9 0.287017
5 *80:28 *657:A0 1.02002
6 *80:24 *80:28 0.0675284
7 *80:6 *80:7 0.287017
8 *80:14 *80:9 0.143509
9 *80:28 *80:29 0.143509
10 *80:6 *80:5 1.72202
11 *80:14 *80:13 2.86999989
12 *80:21 *80:29 1.02002
13 *80:5 *80:16 0.143509
14 *80:17 *80:13 1.02002
15 *80:17 *80:21 0.430482
16 *80:16 *80:15 1.57851
17 *80:18 *80:17 1.29149
18 *80:27 *80:15 1.02002
19 *80:19 *80:18 0.143509
20 *80:12 *480:Y 1.02002
21 *80:27 *80:20 0.143509
22 *80:20 *80:19 1.57851
23 *80:12 *80:11 0.861009
24 *80:22 *80:20 1.00452
25 *80:22 *80:11 1.02002
26 *80:26 *80:22 1.86548
27 *80:25 *660:A0 1.02002
28 *80:25 *80:26 1.02002
29 *80:23 *80:25 0.0349904
*END

*D_NET *81 0.000680742

*CONN
*I *647:B0 I *C 65.805 28.495 *L 0.0112 *D OAI21X8M
*I *481:Y O *C 64.165 31.775 *L 0 *D BUFX4M

*CAP
1 *647:B0 5.60316e-05
2 *481:Y 2.76514e-05
3 *81:2 0.000126722
4 *81:3 6.63803e-05
5 *81:4 5.85714e-05
6 *81:5 0.00013862
7 *81:6 0.00020677

*RES
1 *81:5 *647:B0 1.01999998
2 *81:5 *81:6 0.717499
3 *81:2 *81:6 0.430499
4 *81:2 *81:4 0.1435
5 *81:3 *81:4 1.01999998
6 *481:Y *81:3 0.274113
*END

*D_NET *82 0.000802012

*CONN
*I *644:B0 I *C 66.625 31.365 *L 0.0112 *D OAI21X8M
*I *482:Y O *C 65.395 33.825 *L 0 *D BUFX4M

*CAP
1 *644:B0 5.60314e-05
2 *482:Y 5.60314e-05
3 *82:2 0.000116301
4 *82:3 0.000116301
5 *82:4 0.00020575
6 *82:5 0.00020575
7 *82:7 4.58499e-05

*RES
1 *82:4 *482:Y 1.01999998
2 *82:5 *82:4 0.860999
3 *82:3 *82:5 1.01999998
4 *82:3 *82:2 0.430499
5 *82:7 *644:B0 1.01999998
6 *82:7 *82:2 1.01999998
7 *82:6 *82:7 0.204277
*END

*D_NET *83 0.00054492

*CONN
*I *660:B0 I *C 51.045 34.235 *L 0.00579 *D OAI21X4M
*I *483:Y O *C 49.815 35.055 *L 0 *D BUFX2M

*CAP
1 *660:B0 5.60292e-05
2 *483:Y 5.60292e-05
3 *83:2 8.63901e-05
4 *83:3 0.00015454
5 *83:4 6.18915e-05
6 *83:5 0.000130039

*RES
1 *83:4 *660:B0 1.01999998
2 *83:4 *83:5 0.1435
3 *83:3 *83:5 0.430499
4 *83:2 *83:3 0.286999
5 *483:Y *83:2 1.01999998
*END

*D_NET *84 0.00139302

*CONN
*I *638:B0 I *C 54.735 22.755 *L 0.00856 *D OAI21X6M
*I *484:Y O *C 53.095 16.605 *L 0 *D BUFX4M

*CAP
1 *638:B0 5.60313e-05
2 *484:Y 2.51436e-05
3 *84:2 0.00050933
4 *84:3 0.00057736
5 *84:4 0.000114653
6 *84:5 6.38809e-05
7 *84:6 4.66223e-05

*RES
1 *84:2 *638:B0 1.01999
2 *84:3 *84:2 2.296
3 *84:4 *84:3 0.4305
4 *84:4 *84:6 0.1435
5 *84:5 *84:6 1.01999
6 *484:Y *84:5 0.274107
*END

*D_NET *85 0.000463741

*CONN
*I *683:A I *C 64.165 25.625 *L 0.00581 *D NAND2X4M
*I *485:Y O *C 63.755 29.315 *L 0 *D BUFX2M

*CAP
1 *683:A 5.60303e-05
2 *485:Y 5.60303e-05
3 *85:2 6.84704e-05
4 *85:3 7.59004e-05
5 *85:4 9.994e-05
6 *85:5 0.00010737

*RES
1 *85:4 *683:A 1.01999998
2 *85:4 *85:5 0.573999
3 *85:2 *485:Y 1.01999998
4 *85:3 *85:5 0.1435
5 *85:3 *85:2 0.286999
*END

*D_NET *86 0.00229231

*CONN
*I *596:SE I *C 46.945 57.195 *L 0.00231 *D SDFFRQX2M
*I *595:SE I *C 46.125 48.585 *L 0.00231 *D SDFFRQX2M
*I *594:SE I *C 44.895 48.585 *L 0.00231 *D SDFFRQX2M
*I *486:Y O *C 48.175 56.785 *L 0 *D BUFX4M

*CAP
1 *596:SE 5.6032e-05
2 *595:SE 5.6032e-05
3 *594:SE 5.6032e-05
4 *486:Y 2.80634e-05
5 *86:4 0.000121115
6 *86:5 0.00062175
7 *86:6 0.000584266
8 *86:7 0.000187782
9 *86:8 0.000223777
10 *86:9 0.000125821
11 *86:10 6.67906e-05
12 *86:11 6.35269e-05
13 *86:12 0.000101324

*RES
1 *86:10 *486:Y 0.274116
2 *86:11 *86:10 1.02001
3 *86:11 *86:12 0.143498
4 *86:9 *86:12 0.286996
5 *86:8 *596:SE 1.02001
6 *86:8 *86:9 0.286996
7 *86:7 *86:8 0.573991
8 *86:6 *86:7 0.286996
9 *86:5 *595:SE 1.02001
10 *86:5 *86:6 2.43950009
11 *86:4 *86:5 0.430493
12 *594:SE *86:4 1.02001
*END

*D_NET *87 0.0010617

*CONN
*I *624:B0 I *C 57.605 82.615 *L 0.00251 *D OAI2BB1X2M
*I *487:Y O *C 55.965 76.465 *L 0 *D BUFX2M

*CAP
1 *624:B0 5.60291e-05
2 *487:Y 5.60291e-05
3 *87:2 0.000242923
4 *87:3 0.00034141
5 *87:4 0.000231899
6 *87:5 0.000133412

*RES
1 *87:5 *624:B0 1.02
2 *87:4 *87:5 0.430493
3 *87:3 *87:4 0.573998
4 *87:2 *87:3 1.29149997
5 *487:Y *87:2 1.02
*END

*D_NET *88 0.00148437

*CONN
*I *654:AN I *C 27.675 42.845 *L 0.00275 *D NAND2BX4M
*I *653:B0 I *C 29.315 48.175 *L 0.00126 *D AO21XLM
*I *488:Y O *C 29.315 46.535 *L 0 *D BUFX2M

*CAP
1 *654:AN 5.60329e-05
2 *653:B0 5.60329e-05
3 *488:Y 3.04307e-05
4 *88:3 6.18894e-05
5 *88:4 0.00013004
6 *88:5 0.000248421
7 *88:6 6.91621e-05
8 *88:7 0.00035836
9 *88:8 0.00019976
10 *88:9 0.00014084
11 *88:10 0.000133414

*RES
1 *88:10 *653:B0 1.01999998
2 *88:9 *88:10 0.430499
3 *88:8 *88:9 0.1435
4 *88:6 *488:Y 0.274113
5 *88:7 *88:8 0.717499
6 *88:7 *88:6 1.01999998
7 *88:5 *88:7 0.573999
8 *88:4 *88:5 0.430499
9 *88:3 *88:4 0.1435
10 *654:AN *88:3 1.01999998
*END

*D_NET *89 0.00111408

*CONN
*I *622:B0 I *C 61.705 80.565 *L 0.00168 *D OAI2BB1X1M
*I *489:Y O *C 62.935 75.235 *L 0 *D BUFX2M

*CAP
1 *622:B0 5.60314e-05
2 *489:Y 5.60314e-05
3 *89:2 0.000230249492
4 *89:3 0.000222861
5 *89:4 0.000132381
6 *89:5 0.00010206
7 *89:6 0.000138378
8 *89:7 0.000176091

*RES
1 *89:6 *489:Y 1.01999998
2 *89:6 *89:7 0.430499
3 *89:4 *89:7 0.286999
4 *89:3 *622:B0 1.01999998
5 *89:4 *89:5 0.573999
6 *89:2 *89:3 0.860999
7 *89:2 *89:5 0.1435
*END

*D_NET *90 0.000703097

*CONN
*I *641:B0 I *C 39.975 68.675 *L 0.00579 *D OAI21X4M
*I *490:Y O *C 42.845 69.495 *L 0 *D BUFX2M

*CAP
1 *641:B0 5.60284e-05
2 *490:Y 5.60284e-05
3 *90:2 0.00019687
4 *90:3 0.00019687
5 *90:6 5.03898e-05
6 *90:7 5.03898e-05
7 *90:8 4.826e-05
8 *90:9 4.826e-05

*RES
1 *90:9 *490:Y 1.01999998
2 *90:5 *90:8 0.067532
3 *90:8 *90:9 0.1435
4 *90:2 *90:8 1.01999998
5 *90:3 *90:2 1.0045
6 *90:7 *90:3 1.01999998
7 *90:6 *641:B0 1.01999998
8 *90:6 *90:7 0.1435
9 *90:4 *90:6 0.067532
*END

*D_NET *91 0.0006432

*CONN
*I *645:B0 I *C 47.765 74.415 *L 0.00579 *D OAI21X4M
*I *491:Y O *C 49.405 70.725 *L 0 *D CLKBUFX2M

*CAP
1 *645:B0 5.60299e-05
2 *491:Y 5.60299e-05
3 *91:2 0.000186231289
4 *91:3 8.77207e-05
5 *91:4 7.93405e-05
6 *91:5 0.000177851

*RES
1 *91:4 *491:Y 1.01999998
2 *91:3 *645:B0 1.01999998
3 *91:4 *91:5 0.286999
4 *91:2 *91:3 0.430499
5 *91:2 *91:5 0.573999
*END

*D_NET *92 0.000463091

*CONN
*I *642:B0 I *C 39.975 74.415 *L 0.00579 *D OAI21X4M
*I *492:Y O *C 39.155 76.465 *L 0 *D CLKBUFX2M

*CAP
1 *642:B0 5.60297e-05
2 *492:Y 5.02904e-05
3 *92:2 0.00013717
4 *92:3 8.24297e-05
5 *92:4 0.00013717

*RES
1 *92:2 *642:B0 1.01999998
2 *92:2 *92:4 0.860999
3 *92:3 *92:4 1.01999998
4 *492:Y *92:3 0.548225
*END

*D_NET *93 0.00335377

*CONN
*I *724:A I *C 28.495 19.885 *L 0.00301 *D INVX2M
*I *701:A I *C 25.625 22.755 *L 0.0022 *D OR3X2M
*I *690:A1N I *C 26.035 37.105 *L 0.00611 *D OAI2BB2X8M
*I *689:A0 I *C 26.855 23.165 *L 0.00568 *D AOI21X4M
*I *598:A1 I *C 26.445 28.495 *L 0.00176 *D AO21X2M
*I *493:Y O *C 26.855 35.055 *L 0 *D BUFX8M

*CAP
1 *724:A 5.60317e-05
2 *701:A 5.60317e-05
3 *690:A1N 5.60317e-05
4 *689:A0 5.60317e-05
5 *598:A1 5.60317e-05
6 *493:Y 5.60317e-05
7 *93:6 0.000361108
8 *93:7 0.00044863
9 *93:8 7.23654e-05
10 *93:9 6.49447e-05
11 *93:10 0.00022375
12 *93:11 0.000284471
13 *93:12 9.53668e-05
14 *93:13 0.000216145
15 *93:14 0.000142444
16 *93:15 0.000116623
17 *93:16 0.000294569
18 *93:17 0.000321157
19 *93:18 8.60499e-05
20 *93:19 0.000114767
21 *93:20 5.40533e-05
22 *93:21 0.00012112

*RES
1 *93:14 *690:A1N 1.02
2 *93:21 *724:A 1.02
3 *93:13 *93:14 0.860989
4 *93:13 *493:Y 1.02
5 *93:19 *93:21 0.430509
6 *93:12 *93:13 0.286987
7 *93:19 *93:20 0.143493
8 *93:12 *93:6 0.143493
9 *93:16 *93:20 0.143493
10 *93:7 *598:A1 1.02
11 *93:7 *93:6 1.86549997
12 *93:17 *689:A0 1.02
13 *93:16 *93:17 1.00451
14 *93:15 *93:7 0.574002
15 *93:17 *93:18 0.143493
16 *93:10 *93:15 0.143493
17 *93:11 *93:18 0.286987
18 *93:11 *93:10 1.148
19 *93:8 *93:11 0.143493
20 *93:9 *93:8 0.286987
21 *701:A *93:9 1.02
*END

*D_NET *94 0.00163506

*CONN
*I *690:B0 I *C 22.345 37.105 *L 0.0117 *D OAI2BB2X8M
*I *494:Y O *C 27.675 31.775 *L 0 *D CLKBUFX6M
*I *493:A I *C 27.675 34.235 *L 0.00499 *D BUFX8M

*CAP
1 *690:B0 5.60271e-05
2 *494:Y 5.60271e-05
3 *493:A 5.60271e-05
4 *94:3 0.000237204
5 *94:4 0.000190268
6 *94:5 6.11696e-05
7 *94:6 0.00012003
8 *94:7 0.00036913
9 *94:8 0.00012003
10 *94:9 0.00036913

*RES
1 *94:4 *494:Y 1.02
2 *94:3 *493:A 1.02
3 *94:4 *94:3 0.860989
4 *94:3 *94:5 0.286987
5 *94:9 *94:5 1.02
6 *94:8 *690:B0 1.02
7 *94:7 *94:9 1.86549997
8 *94:6 *94:8 0.717496
9 *94:6 *94:7 1.02
*END

*D_NET *95 0.00727207

*CONN
*I *704:A I *C 54.735 31.365 *L 0.00317 *D NAND2X2M
*I *700:B I *C 61.705 25.215 *L 0.00197 *D NAND2BX1M
*I *695:A1N I *C 67.035 34.645 *L 0.00131 *D OAI2BB1X2M
*I *691:A1N I *C 66.215 25.215 *L 0.00131 *D OAI2BB1X2M
*I *687:A1N I *C 46.945 34.645 *L 0.00131 *D OAI2BB1X2M
*I *495:Y O *C 43.665 26.035 *L 0 *D BUFX4M

*CAP
1 *704:A 5.60263e-05
2 *700:B 5.60263e-05
3 *695:A1N 5.60263e-05
4 *691:A1N 5.60263e-05
5 *687:A1N 5.60263e-05
6 *495:Y 5.60263e-05
7 *95:6 0.000579001
8 *95:7 0.000281628
9 *95:8 0.000311605
10 *95:9 0.000271256
11 *95:10 0.000319273
12 *95:11 0.000228322
13 *95:12 0.000190523
14 *95:13 6.35248e-05
15 *95:14 0.000233576
16 *95:15 0.000233576
17 *95:16 6.97991e-05
18 *95:17 6.23516e-05
19 *95:18 0.000297288
20 *95:19 0.000297288
21 *95:20 4.66234e-05
22 *95:21 8.4405e-05
23 *95:22 0.000896302
24 *95:23 0.00111432
25 *95:24 0.000592315
26 *95:25 0.000381778
27 *95:28 4.58583e-05
28 *95:29 8.94891e-05
29 *95:30 8.94891e-05
30 *95:31 5.89679e-05
31 *95:32 4.58583e-05
32 *95:33 5.15204e-05

*RES
1 *95:20 *695:A1N 1.01998
2 *95:32 *691:A1N 1.01998
3 *95:27 *95:32 0.204271
4 *95:21 *95:20 0.143489
5 *95:18 *95:32 1.01998
6 *95:11 *95:21 0.28702
7 *95:19 *95:18 1.43502
8 *95:17 *700:B 1.01998
9 *95:12 *95:11 1.29148
10 *95:13 *95:19 1.01998
11 *95:17 *95:16 0.143489
12 *95:33 *95:12 1.01998
13 *95:13 *95:10 0.143489
14 *95:16 *95:10 0.143489
15 *95:31 *95:33 0.143489
16 *95:30 *704:A 1.01998
17 *95:10 *95:9 1.5785
18 *95:25 *95:31 0.143489
19 *95:29 *95:30 0.430509
20 *95:22 *95:9 1.01998
21 *95:22 *95:25 1.29148
22 *95:23 *95:29 1.01998
23 *95:23 *95:22 2.58301
24 *95:24 *95:23 2.72650003
25 *95:8 *687:A1N 1.01998
26 *95:6 *95:24 1.01998
27 *95:6 *95:8 1.5785
28 *95:7 *95:6 1.43502
29 *95:14 *95:7 1.01998
30 *95:15 *95:14 1.148
31 *95:28 *95:15 1.01998
32 *95:28 *495:Y 1.01998
33 *95:26 *95:28 0.204271
*END

*D_NET *96 0.00149554

*CONN
*I *707:A I *C 36.695 42.435 *L 0.00199 *D OR2X2M
*I *591:A1N I *C 36.695 34.235 *L 0.00267 *D AOI2BB2X4M
*I *496:Y O *C 35.875 36.285 *L 0 *D BUFX2M

*CAP
1 *707:A 5.60306e-05
2 *591:A1N 5.60306e-05
3 *496:Y 5.60306e-05
4 *96:3 0.000111299
5 *96:4 7.35085e-05
6 *96:5 0.00014761
7 *96:6 0.000101101
8 *96:7 0.00013633
9 *96:8 0.00023573
10 *96:9 0.00019794
11 *96:9 *114:3 0.00010199
12 *96:8 *114:4 0.00010199
13 *96:9 *114:5 1.438e-05
14 *96:8 *114:6 1.438e-05
15 *96:9 *114:6 4.79e-06
16 *96:8 *114:7 4.79e-06
17 *96:7 *114:8 4.08e-05
18 *96:5 *114:9 4.07999973e-05

*RES
1 *96:9 *707:A 1.02
2 *96:8 *96:9 1.43499994
3 *96:4 *591:A1N 1.02
4 *96:7 *96:8 0.286996
5 *96:4 *96:3 0.430504
6 *96:5 *96:7 0.7175
7 *96:5 *496:Y 1.02
8 *96:6 *96:3 0.286996
9 *96:6 *96:5 0.286996
*END

*D_NET *97 0.00244342

*CONN
*I *720:A I *C 57.605 25.625 *L 0.00576 *D INVX4M
*I *688:A0 I *C 48.995 23.165 *L 0.00909 *D OAI21X6M
*I *497:Y O *C 43.665 22.345 *L 0 *D CLKBUFX6M

*CAP
1 *720:A 2.48183e-05
2 *688:A0 5.60313e-05
3 *497:Y 5.60313e-05
4 *97:3 9.66194e-05
5 *97:4 9.66194e-05
6 *97:5 0.00030567
7 *97:6 0.000224312
8 *97:7 0.000243179
9 *97:8 0.000243179
10 *97:9 0.000103079
11 *97:11 4.58493e-05
12 *97:12 0.0002956
13 *97:13 0.00015037
14 *97:14 0.000288137
15 *97:15 6.35501e-05
16 *97:16 0.00015037

*RES
1 *97:15 *720:A 0.274121
2 *97:16 *97:15 1.02
3 *97:13 *97:16 0.860989
4 *97:14 *97:13 1.02
5 *97:12 *97:14 1.86549997
6 *97:4 *497:Y 1.02
7 *97:12 *97:7 0.143493
8 *97:4 *97:3 0.286987
9 *97:8 *97:7 1.148
10 *97:6 *97:3 1.02
11 *97:9 *97:8 0.143493
12 *97:6 *97:5 1.148
13 *97:5 *97:9 0.430509
14 *97:11 *688:A0 1.02
15 *97:11 *97:5 1.02
16 *97:10 *97:11 0.204267
*END

*D_NET *98 0.000647781

*CONN
*I *591:B0 I *C 39.975 34.235 *L 0.00558 *D AOI2BB2X4M
*I *498:Y O *C 41.615 30.545 *L 0 *D CLKBUFX2M

*CAP
1 *591:B0 5.60296e-05
2 *498:Y 5.60296e-05
3 *98:2 0.000172099
4 *98:3 7.35905e-05
5 *98:4 9.57581e-05
6 *98:5 0.00019427

*RES
1 *98:4 *498:Y 1.01999998
2 *98:3 *591:B0 1.01999998
3 *98:4 *98:5 0.430499
4 *98:2 *98:3 0.286999
5 *98:2 *98:5 0.573999
*END

*D_NET *99 0.00164271

*CONN
*I *648:A I *C 73.595 68.675 *L 0.00317 *D NAND2X2M
*I *640:B0 I *C 74.415 71.545 *L 0.0013 *D AO21X1M
*I *609:A0 I *C 74.825 68.265 *L 0.00173 *D OA21X2M
*I *499:Y O *C 78.515 69.495 *L 0 *D CLKBUFX2M

*CAP
1 *648:A 5.60313e-05
2 *640:B0 5.60313e-05
3 *609:A0 5.60313e-05
4 *499:Y 5.60313e-05
5 *99:4 0.000111619
6 *99:5 0.000119009
7 *99:7 0.000116769
8 *99:8 4.87391e-05
9 *99:9 0.000114649
10 *99:10 0.00012152
11 *99:11 0.00016519
12 *99:12 9.65303e-05
13 *99:13 4.58504e-05
14 *99:14 0.00016519
15 *99:14 *179:8 0.00014056
16 *99:11 *179:9 0.00014056
17 *99:8 *179:4 1.62e-05
18 *99:7 *179:5 1.61999902e-05

*RES
1 *99:8 *648:A 1.02
2 *99:4 *640:B0 1.02
3 *99:7 *99:8 0.287009
4 *99:5 *99:4 0.717502
5 *99:7 *99:9 0.430493
6 *99:5 *99:12 0.143504
7 *99:10 *609:A0 1.02
8 *99:9 *99:10 0.143504
9 *99:10 *99:12 0.430493
10 *99:11 *99:10 1.02
11 *99:11 *99:14 1.29149997
12 *99:13 *99:14 1.02
13 *99:13 *499:Y 1.02
14 *99:6 *99:13 0.20428
*END

*D_NET *100 0.00451314

*CONN
*I *682:A I *C 36.695 74.415 *L 0.00313 *D NAND3X2M
*I *676:A I *C 41.205 71.545 *L 0.00313 *D NAND3X2M
*I *645:A0 I *C 46.125 74.415 *L 0.00567 *D OAI21X4M
*I *642:A0 I *C 38.335 74.415 *L 0.00567 *D OAI21X4M
*I *641:A0 I *C 38.335 68.675 *L 0.00567 *D OAI21X4M
*I *500:Y O *C 49.405 69.495 *L 0 *D BUFX8M

*CAP
1 *682:A 5.60327e-05
2 *676:A 5.60327e-05
3 *645:A0 5.60327e-05
4 *642:A0 5.60327e-05
5 *641:A0 5.60327e-05
6 *500:Y 5.60327e-05
7 *100:6 6.61624e-05
8 *100:7 6.61624e-05
9 *100:8 0.000300998
10 *100:9 0.000221815
11 *100:10 5.78157e-05
12 *100:11 5.03854e-05
13 *100:12 0.000131053
14 *100:13 0.000131053
15 *100:14 0.000465530703
16 *100:15 0.000465530703
17 *100:16 0.000191689
18 *100:17 0.000191689
19 *100:18 0.00018563
20 *100:19 0.000171039
21 *100:20 4.79702e-05
22 *100:21 0.000171842
23 *100:22 0.000145537
24 *100:25 0.000108294
25 *100:26 4.58463e-05
26 *100:27 5.29356e-05
27 *100:28 0.000265459
28 *100:29 0.000204142
29 *100:30 0.000204142
30 *100:31 0.000234239

*RES
1 *100:29 *500:Y 1.01999
2 *100:12 *645:A0 1.01999
3 *100:29 *100:30 1.14801
4 *100:13 *100:12 0.717509
5 *100:31 *100:30 1.01999
6 *100:28 *100:13 1.01999
7 *100:28 *100:31 1.2915
8 *100:27 *100:28 0.143491
9 *100:14 *100:27 0.143491
10 *100:11 *641:A0 1.01999
11 *100:26 *676:A 1.01999
12 *100:24 *100:26 0.204267
13 *100:15 *100:14 1.722
14 *100:11 *100:10 0.143491
15 *100:18 *100:26 1.01999
16 *100:18 *100:15 0.143491
17 *100:10 *100:9 0.143491
18 *100:19 *100:18 0.717509
19 *100:9 *100:8 0.861
20 *100:8 *100:19 1.01999
21 *100:8 *100:25 0.287009
22 *100:22 *100:25 0.143491
23 *100:20 *642:A0 1.01999
24 *100:22 *100:21 0.573991
25 *100:21 *100:20 0.143491
26 *100:16 *100:21 1.01999
27 *100:6 *682:A 1.01999
28 *100:17 *100:16 0.717509
29 *100:7 *100:6 0.143491
30 *100:7 *100:17 1.01999
31 *100:23 *100:7 0.0675284
*END

*D_NET *101 0.0101441

*CONN
*I *685:SE I *C 26.035 57.195 *L 0.00231 *D SDFFRQX2M
*I *684:SE I *C 20.705 71.545 *L 0.00231 *D SDFFRQX2M
*I *673:SE I *C 12.915 77.285 *L 0.00231 *D SDFFRQX2M
*I *672:SE I *C 24.395 68.675 *L 0.00231 *D SDFFRQX2M
*I *671:SE I *C 25.215 62.935 *L 0.00231 *D SDFFRQX2M
*I *670:SE I *C 16.605 80.155 *L 0.00231 *D SDFFRQX2M
*I *669:SE I *C 12.915 74.415 *L 0.00231 *D SDFFRQX2M
*I *668:SE I *C 17.835 83.025 *L 0.00231 *D SDFFRQX2M
*I *602:SE I *C 17.835 60.065 *L 0.00231 *D SDFFRQX2M
*I *501:Y O *C 28.495 58.015 *L 0 *D BUFX8M

*CAP
1 *685:SE 5.60346e-05
2 *684:SE 5.60346e-05
3 *673:SE 5.60346e-05
4 *672:SE 5.60346e-05
5 *671:SE 5.60346e-05
6 *670:SE 5.60346e-05
7 *669:SE 5.60346e-05
8 *668:SE 5.60346e-05
9 *602:SE 5.60346e-05
10 *501:Y 2.51436e-05
11 *101:10 0.000770523
12 *101:11 0.00082061
13 *101:12 0.00020493
14 *101:13 0.00020493
15 *101:14 0.00039233
16 *101:15 0.00035454
17 *101:16 0.000182128
18 *101:17 0.000151776
19 *101:18 0.00037932
20 *101:19 0.000629266
21 *101:20 8.54606e-05
22 *101:21 4.76701e-05
23 *101:22 0.000301961
24 *101:23 0.000179749
25 *101:24 0.000529693
26 *101:25 0.000364206
27 *101:26 0.00012126
28 *101:27 0.00012126
29 *101:28 0.000259237
30 *101:29 0.000259237
31 *101:32 0.000227081
32 *101:33 0.000146629
33 *101:34 0.000103843
34 *101:35 9.84331e-05
35 *101:36 0.000114774
36 *101:37 0.000223763
37 *101:38 0.000155607
38 *101:39 9.07573e-05
39 *101:40 7.48422e-05
40 *101:41 7.48422e-05
41 *101:42 6.38732e-05
42 *101:43 5.03999e-05
43 *101:44 8.81779e-05
44 *101:24 *5:5 4.733e-05
45 *101:25 *5:6 4.733e-05
46 *101:24 *5:7 1.222e-05
47 *101:25 *5:8 1.222e-05
48 *101:26 *5:10 0.00014081
49 *101:27 *5:9 0.000140809996
50 *101:23 *66:4 3.347e-05
51 *101:24 *66:5 3.347e-05
52 *101:24 *66:4 4.46e-06
53 *101:25 *66:5 4.46e-06
54 *101:18 *66:2 0.00010034
55 *101:19 *66:3 0.000100339993
56 *101:20 *11:4 4.036e-05
57 *101:21 *11:3 4.036e-05
58 *101:19 *11:4 0.00019852
59 *101:22 *11:3 0.000198519995
60 *101:18 *10:3 0.00014081
61 *101:19 *10:4 0.000140809993
62 *101:26 *65:2 0.00013689
63 *101:27 *65:3 0.00013689
64 *101:38 *65:4 1.562e-05
65 *101:37 *65:5 1.56200046e-05

*RES
1 *101:38 *668:SE 1.01998
2 *101:37 *101:38 0.86102
3 *101:42 *501:Y 0.274101
4 *101:15 *602:SE 1.01998
5 *101:13 *669:SE 1.01998
6 *101:36 *101:37 0.430487
7 *101:43 *101:42 1.01998
8 *101:15 *101:14 1.57848
9 *101:12 *673:SE 1.01998
10 *101:13 *101:12 1.00448
11 *101:35 *670:SE 1.01998
12 *101:35 *101:36 0.143511
13 *101:43 *101:44 0.143511
14 *101:17 *101:14 0.287022
15 *101:29 *101:12 1.01998
16 *101:34 *101:35 0.287022
17 *101:20 *101:44 0.287022
18 *101:17 *101:16 0.717509
19 *101:29 *101:28 1.00448
20 *101:33 *101:34 0.287022
21 *101:21 *685:SE 1.01998
22 *101:31 *101:21 0.204254
23 *101:21 *101:20 0.287022
24 *101:32 *101:16 0.430487
25 *101:10 *101:28 1.01998
26 *101:10 *101:33 0.717509
27 *101:41 *101:21 1.01998
28 *101:26 *684:SE 1.01998
29 *101:32 *101:11 0.717509
30 *101:11 *101:10 3.01349998
31 *101:40 *101:41 0.287022
32 *101:27 *101:26 1.00448
33 *101:25 *101:11 1.01998
34 *101:22 *101:40 1.01998
35 *101:24 *101:27 1.01998
36 *101:25 *101:24 1.72199
37 *101:19 *671:SE 1.01998
38 *101:22 *101:19 2.00902
39 *101:24 *101:23 1.29151
40 *101:19 *101:18 2.00902
41 *101:39 *672:SE 1.01998
42 *101:39 *101:23 1.01998
43 *101:39 *101:18 0.287022
44 *101:30 *101:39 0.204254
*END

*D_NET *102 0.00232802

*CONN
*I *697:A I *C 32.595 46.125 *L 0.00584 *D NOR2X4M
*I *694:A I *C 27.265 48.175 *L 0.00584 *D NOR2X4M
*I *608:B0 I *C 24.395 42.845 *L 0.0117 *D OAI2BB2X8M
*I *502:Y O *C 32.595 42.025 *L 0 *D BUFX8M

*CAP
1 *697:A 5.60319e-05
2 *694:A 5.60319e-05
3 *608:B0 5.60319e-05
4 *502:Y 0.000112064
5 *102:4 0.000467419609
6 *102:5 0.000467419609
7 *102:6 0.000341647
8 *102:7 0.000102036
9 *102:8 5.97621e-05
10 *102:9 5.97621e-05
11 *102:12 4.58469e-05
12 *102:13 0.000253869
13 *102:14 0.000125052
14 *102:15 0.000125052

*RES
1 *102:15 *697:A 1.02001
2 *102:14 *102:15 0.861004
3 *502:Y *102:14 1.02001
4 *102:4 *694:A 1.02001
5 *102:11 *102:12 0.204284
6 *102:12 *502:Y 1.02001
7 *102:5 *102:4 2.00900006
8 *102:13 *102:12 1.02001
9 *102:6 *102:5 1.02001
10 *102:6 *102:13 1.43499
11 *102:8 *608:B0 1.02001
12 *102:7 *102:6 0.430487
13 *102:9 *102:8 0.143496
14 *102:9 *102:7 1.02001
15 *102:10 *102:9 0.0675328
*END

*D_NET *103 0.00357109

*CONN
*I *702:B I *C 38.335 37.515 *L 0.00207 *D OR2X2M
*I *690:B1 I *C 23.165 36.695 *L 0.0119 *D OAI2BB2X8M
*I *503:Y O *C 25.625 31.775 *L 0 *D CLKBUFX6M

*CAP
1 *702:B 5.60278e-05
2 *690:B1 5.60278e-05
3 *503:Y 5.60278e-05
4 *103:3 0.0003059
5 *103:4 0.000298472
6 *103:5 0.000125891
7 *103:6 0.000285119
8 *103:7 7.78566e-05
9 *103:8 0.000206734
10 *103:9 0.000287919
11 *103:10 0.000287919
12 *103:11 0.000140422
13 *103:12 0.000132957
14 *103:14 0.00060771
15 *103:15 4.5846e-05
16 *103:16 0.000600254

*RES
1 *103:7 *690:B1 1.01998
2 *103:4 *503:Y 1.01998
3 *103:8 *103:7 0.28702
4 *103:4 *103:3 1.43502
5 *103:8 *103:6 0.717487
6 *103:6 *103:3 0.143489
7 *103:6 *103:5 0.573998
8 *103:12 *103:5 1.01998
9 *103:12 *103:11 0.430509
10 *103:11 *103:10 0.143489
11 *103:10 *103:9 1.43502
12 *103:14 *103:9 0.143489
13 *103:14 *103:16 2.72650003
14 *103:15 *702:B 1.01998
15 *103:15 *103:16 1.01998
16 *103:13 *103:15 0.204271
*END

*D_NET *104 0.00174809

*CONN
*I *718:A I *C 54.735 74.415 *L 0.00127 *D INVXLM
*I *713:B0 I *C 54.325 71.135 *L 0.00251 *D OAI2BB1X2M
*I *709:B0 I *C 54.325 69.085 *L 0.00251 *D OAI2BB1X2M
*I *703:A I *C 51.865 71.135 *L 0.00293 *D CLKAND2X6M
*I *504:Y O *C 52.685 68.265 *L 0 *D BUFX4M

*CAP
1 *718:A 5.60316e-05
2 *713:B0 5.60316e-05
3 *709:B0 5.60316e-05
4 *703:A 5.02923e-05
5 *504:Y 5.60316e-05
6 *104:5 0.0002704
7 *104:6 0.000124499
8 *104:7 8.243e-05
9 *104:8 7.03201e-05
10 *104:9 0.000103989
11 *104:10 0.00025416
12 *104:11 0.000117749
13 *104:12 6.48325e-05
14 *104:13 0.000196362
15 *104:14 0.000188931

*RES
1 *104:14 *718:A 1.01999998
2 *104:13 *104:14 0.860999
3 *104:12 *104:13 0.1435
4 *104:9 *709:B0 1.01999998
5 *104:11 *713:B0 1.01999998
6 *104:11 *104:12 0.286999
7 *104:6 *504:Y 1.01999998
8 *104:9 *104:10 0.430499
9 *104:10 *104:11 0.286999
10 *104:6 *104:5 0.717499
11 *104:5 *104:10 0.573999
12 *104:5 *104:8 0.286999
13 *104:7 *104:8 1.01999998
14 *703:A *104:7 0.548225
*END

*D_NET *105 0.00314084

*CONN
*I *742:A I *C 60.065 31.365 *L 0.00863 *D INVX6M
*I *691:A0N I *C 65.805 26.445 *L 0.00141 *D OAI2BB1X2M
*I *665:A0N I *C 59.655 33.415 *L 0.00141 *D OAI2BB1X2M
*I *505:Y O *C 56.375 26.035 *L 0 *D BUFX4M

*CAP
1 *742:A 8.02426e-05
2 *691:A0N 5.60254e-05
3 *665:A0N 2.79302e-05
4 *505:Y 2.80622e-05
5 *105:4 0.00054074
6 *105:5 0.00054074
7 *105:6 9.62993e-05
8 *105:7 5.85668e-05
9 *105:9 6.67849e-05
10 *105:10 0.000403606
11 *105:11 0.000426907
12 *105:12 0.000167094
13 *105:13 0.000112381
14 *105:14 0.000198135
15 *105:15 0.000120863
16 *105:16 5.56954e-05
17 *105:17 6.66611e-05
18 *105:18 4.82611e-05
19 *105:19 4.58435e-05

*RES
1 *105:17 *665:A0N 0.274101
2 *105:18 *105:17 1.01998
3 *105:16 *105:18 0.143511
4 *105:13 *742:A 0.822349
5 *105:15 *105:16 0.143511
6 *505:Y *105:9 0.274101
7 *105:14 *105:13 1.01998
8 *105:14 *105:15 0.573998
9 *105:7 *105:9 1.01998
10 *105:12 *105:14 0.430487
11 *105:7 *105:6 0.143511
12 *105:11 *105:12 0.430487
13 *105:6 *105:10 0.287022
14 *105:10 *105:11 1.29151
15 *105:5 *105:10 1.01998
16 *105:5 *105:4 3.01349998
17 *105:19 *691:A0N 1.01998
18 *105:19 *105:4 1.01998
19 *105:8 *105:19 0.0349926
*END

*D_NET *106 0.00506091

*CONN
*I *711:A I *C 67.445 48.175 *L 0.00584 *D NOR2X4M
*I *710:A I *C 67.445 59.655 *L 0.00451 *D NOR2X3M
*I *705:D I *C 73.595 54.325 *L 0.00116 *D DFFRQX2M
*I *606:B I *C 69.495 68.675 *L 0.00295 *D NOR2X2M
*I *587:B I *C 68.675 65.805 *L 0.00295 *D NOR2X2M
*I *506:Y O *C 70.315 59.245 *L 0 *D BUFX8M

*CAP
1 *711:A 5.6029e-05
2 *710:A 5.6029e-05
3 *705:D 5.6029e-05
4 *606:B 5.6029e-05
5 *587:B 7.96939e-05
6 *506:Y 5.6029e-05
7 *106:6 0.000457779
8 *106:7 0.000118743
9 *106:8 8.86192e-05
10 *106:9 8.11871e-05
11 *106:10 0.000493627
12 *106:11 0.00074134
13 *106:12 0.000112985
14 *106:13 0.000100949
15 *106:14 0.000100949
16 *106:15 0.000239885
17 *106:16 0.000239885
18 *106:17 0.00015449
19 *106:18 0.00015449
20 *106:19 0.000185768
21 *106:20 0.000185768
22 *106:23 0.000360461
23 *106:24 0.000111832
24 *106:25 4.5848e-05
25 *106:26 4.5848e-05
26 *106:27 0.000360461
27 *106:12 *259:8 0.00010002
28 *106:10 *259:7 0.00010002
29 *106:10 *259:10 2.156e-05
30 *106:11 *259:9 2.156e-05
31 *106:10 *259:8 3.85e-05
32 *106:11 *259:7 3.85000046e-05

*RES
1 *106:9 *711:A 1.01999
2 *106:13 *606:B 1.01999
3 *106:9 *106:8 0.430493
4 *106:14 *106:13 0.286996
5 *106:8 *106:16 0.143498
6 *106:26 *705:D 1.01999
7 *106:22 *106:26 0.20426
8 *106:19 *106:14 1.01999
9 *106:16 *106:15 1.14802
10 *106:27 *106:26 1.01999
11 *106:20 *106:19 0.717489
12 *106:7 *106:15 0.143498
13 *106:23 *106:27 2.15249991
14 *106:24 *587:B 0.822329
15 *106:12 *106:20 1.01999
16 *106:7 *106:6 0.573991
17 *106:6 *106:23 1.01999
18 *106:10 *106:24 1.01999
19 *106:10 *106:12 0.717489
20 *106:11 *710:A 1.01999
21 *106:6 *106:11 1.8655
22 *106:11 *106:10 2.15249991
23 *106:18 *106:11 1.01999
24 *106:18 *106:17 0.573991
25 *106:25 *106:17 1.01999
26 *106:25 *506:Y 1.01999
27 *106:21 *106:25 0.20426
*END

*D_NET *107 0.000822469

*CONN
*I *599:B0 I *C 42.025 17.015 *L 0.00579 *D OAI21X4M
*I *507:Y O *C 46.535 17.835 *L 0 *D BUFX2M

*CAP
1 *599:B0 5.60311e-05
2 *507:Y 5.60311e-05
3 *107:2 4.87498e-05
4 *107:3 4.87498e-05
5 *107:6 4.58468e-05
6 *107:7 0.00028353
7 *107:8 0.00028353

*RES
1 *107:5 *107:3 0.0675371
2 *107:3 *507:Y 1.01999
3 *107:3 *107:2 0.143504
4 *107:8 *107:2 1.01999
5 *107:7 *107:8 1.57850003
6 *107:6 *599:B0 1.01999
7 *107:6 *107:7 1.01999
8 *107:4 *107:6 0.204273
*END

*D_NET *108 0.001637

*CONN
*I *593:A0 I *C 37.105 51.455 *L 0.00187 *D AO22X2M
*I *508:Y O *C 32.185 58.015 *L 0 *D BUFX2M

*CAP
1 *593:A0 5.60267e-05
2 *508:Y 5.70917e-05
3 *108:2 0.00035976
4 *108:3 0.00035976
5 *108:4 0.000184231
6 *108:5 0.000191685
7 *108:7 0.000142949
8 *108:8 8.92277e-05
9 *108:9 0.000150409
10 *108:10 4.5849e-05

*RES
1 *508:Y *108:8 0.548221
2 *108:2 *108:8 1.01999
3 *108:3 *108:2 1.57850003
4 *108:7 *108:3 1.01999
5 *108:7 *108:9 0.573993
6 *108:5 *108:9 0.143504
7 *108:5 *108:4 0.861002
8 *108:10 *593:A0 1.01999
9 *108:10 *108:4 1.01999
10 *108:6 *108:10 0.204273
*END

*D_NET *109 0.00351943

*CONN
*I *700:AN I *C 61.295 25.215 *L 0.00131 *D NAND2BX1M
*I *696:AN I *C 66.625 22.755 *L 0.00159 *D NAND2BX2M
*I *646:A1 I *C 63.755 22.755 *L 0.0117 *D OAI21X8M
*I *625:A1 I *C 70.725 22.755 *L 0.00595 *D OAI21X4M
*I *509:Y O *C 55.145 29.315 *L 0 *D BUFX8M

*CAP
1 *700:AN 5.60298e-05
2 *696:AN 5.60298e-05
3 *646:A1 7.44232e-05
4 *625:A1 0.000147017
5 *509:Y 5.60298e-05
6 *109:5 0.000185746
7 *109:6 0.000160189
8 *109:7 0.00056832
9 *109:11 0.000277088
10 *109:12 0.000196022
11 *109:13 0.000277088
12 *109:14 0.000106562
13 *109:15 0.000120064
14 *109:16 0.000422387
15 *109:17 0.000120064
16 *109:18 0.000256587
17 *109:19 8.22887e-05
18 *109:20 0.000107411
19 *109:21 2.92073e-05
20 *109:22 9.99449e-05
21 *109:23 2.92073e-05
22 *109:24 4.58489e-05
23 *109:25 4.58489e-05

*RES
1 *109:5 *625:A1 1.37056
2 *109:25 *109:5 1.01998
3 *109:10 *109:25 0.20428
4 *109:24 *696:AN 1.01998
5 *109:9 *109:24 0.20428
6 *109:6 *109:25 1.01998
7 *109:7 *109:24 1.01998
8 *109:7 *109:6 0.717482
9 *109:14 *646:A1 0.822362
10 *109:16 *109:7 2.58299994
11 *109:13 *509:Y 1.01998
12 *109:15 *109:14 1.01998
13 *109:15 *109:16 1.01998
14 *109:11 *109:13 1.148
15 *109:15 *109:17 0.717482
16 *109:12 *109:11 1.01998
17 *109:18 *109:17 1.01998
18 *109:12 *109:18 1.00449
19 *109:18 *109:19 0.287009
20 *109:19 *109:20 0.143504
21 *109:23 *700:AN 1.01998
22 *109:20 *109:22 0.430513
23 *109:21 *109:23 0.0245152
24 *109:21 *109:22 1.01998
25 *109:8 *109:21 0.180198
*END

*D_NET *110 0.00450378

*CONN
*I *657:A1 I *C 69.085 34.235 *L 0.00595 *D OAI21X4M
*I *510:Y O *C 53.095 31.775 *L 0 *D BUFX4M
*I *471:A I *C 60.475 37.105 *L 0.00276 *D BUFX4M

*CAP
1 *657:A1 5.60269e-05
2 *510:Y 5.60269e-05
3 *471:A 5.60269e-05
4 *110:3 0.0005013
5 *110:4 0.00050876
6 *110:5 0.000163974
7 *110:6 0.000382701
8 *110:7 0.000240449
9 *110:8 0.000178072
10 *110:9 0.000178072
11 *110:10 0.00023739
12 *110:11 0.00023739
13 *110:12 0.000287781
14 *110:13 0.000287781
15 *110:16 4.58493e-05
16 *110:17 4.58493e-05
17 *110:10 *132:27 6.03e-06
18 *110:11 *132:28 6.03e-06
19 *110:12 *132:18 0.00025639
20 *110:13 *132:19 0.00025639001
21 *110:3 *71:10 0.00025775
22 *110:4 *71:9 0.000257749987

*RES
1 *110:17 *471:A 1.01999
2 *110:15 *110:17 0.204293
3 *110:8 *657:A1 1.01999
4 *110:10 *110:17 1.01999
5 *110:9 *110:8 0.574013
6 *110:11 *110:10 1.2915
7 *110:3 *110:9 1.01999
8 *110:12 *110:11 1.01999
9 *110:4 *110:3 3.5875001
10 *110:13 *110:12 1.86552
11 *110:5 *110:4 0.143476
12 *110:6 *110:13 1.01999
13 *110:6 *110:5 0.717489
14 *110:7 *110:6 1.2915
15 *110:16 *110:7 1.01999
16 *110:16 *510:Y 1.01999
17 *110:14 *110:16 0.204293
*END

*D_NET *111 0.00646288

*CONN
*I *738:B I *C 57.195 56.785 *L 0.00301 *D OR2X4M
*I *730:B0 I *C 53.095 59.655 *L 0.00251 *D OAI2BB1X2M
*I *713:A1N I *C 53.915 71.135 *L 0.00131 *D OAI2BB1X2M
*I *709:A0N I *C 55.145 67.855 *L 0.00141 *D OAI2BB1X2M
*I *706:B0 I *C 50.225 65.805 *L 0.00467 *D OAI2BB1X4M
*I *703:B I *C 51.455 71.135 *L 0.00294 *D CLKAND2X6M
*I *693:B I *C 53.505 57.195 *L 0.00253 *D CLKNAND2X2M
*I *677:A0 I *C 56.375 74.415 *L 0.00132 *D AO21X1M
*I *511:Y O *C 48.175 63.755 *L 0 *D BUFX8M

*CAP
1 *738:B 5.60285e-05
2 *730:B0 5.60285e-05
3 *713:A1N 5.60285e-05
4 *709:A0N 5.60285e-05
5 *706:B0 5.60285e-05
6 *703:B 5.60285e-05
7 *693:B 5.60285e-05
8 *677:A0 5.60285e-05
9 *511:Y 2.51518e-05
10 *111:9 0.00024979
11 *111:10 0.000340141484
12 *111:11 0.000237832
13 *111:12 0.000328329
14 *111:13 0.000122889
15 *111:14 0.000133129
16 *111:15 6.35284e-05
17 *111:16 0.000212192
18 *111:17 0.00031036
19 *111:18 0.000152219
20 *111:19 5.4051e-05
21 *111:20 5.78191e-05
22 *111:21 5.03919e-05
23 *111:22 0.000142378
24 *111:23 0.000101568
25 *111:24 0.000101568
26 *111:25 7.03224e-05
27 *111:26 7.03224e-05
28 *111:27 0.000174547
29 *111:28 9.00712e-05
30 *111:29 0.000274963
31 *111:30 0.000274963
32 *111:31 0.000106151
33 *111:32 0.000112171
34 *111:33 0.000151658
35 *111:34 0.000151658
36 *111:35 0.000304542
37 *111:36 0.000304542
38 *111:37 0.000228889
39 *111:38 0.000228889
40 *111:41 6.38813e-05
41 *111:42 0.000196959
42 *111:43 0.000196959
43 *111:44 4.58505e-05
44 *111:45 4.58505e-05
45 *111:37 *246:6 0.00011906
46 *111:38 *246:7 0.000119059999

*RES
1 *111:25 *738:B 1.01999
2 *111:26 *111:25 0.287009
3 *111:29 *111:26 1.01999
4 *111:30 *111:29 1.2915
5 *111:28 *111:30 1.01999
6 *111:27 *693:B 1.01999
7 *111:28 *111:27 0.4305
8 *111:27 *111:31 0.287009
9 *111:32 *111:31 0.143491
10 *111:12 *730:B0 1.01999
11 *111:32 *111:12 0.573991
12 *511:Y *111:41 0.274107
13 *111:12 *111:11 1.57851
14 *111:21 *111:41 1.01999
15 *111:43 *111:11 1.01999
16 *111:21 *111:20 0.143491
17 *111:45 *709:A0N 1.01999
18 *111:40 *111:45 0.204267
19 *111:42 *111:43 1.00449
20 *111:20 *111:19 0.143491
21 *111:35 *111:45 1.01999
22 *111:18 *111:42 1.01999
23 *111:19 *111:18 0.143491
24 *111:36 *111:35 1.43499
25 *111:17 *706:B0 1.01999
26 *111:18 *111:17 0.573991
27 *111:24 *677:A0 1.01999
28 *111:15 *111:36 1.01999
29 *111:17 *111:16 0.861
30 *111:24 *111:23 0.287009
31 *111:15 *111:14 0.143491
32 *111:16 *111:14 0.143491
33 *111:37 *111:23 1.01999
34 *111:14 *111:13 0.4305
35 *111:38 *111:37 1.722
36 *111:13 *111:22 0.287009
37 *111:9 *111:38 1.01999
38 *111:10 *703:B 1.01999
39 *111:22 *111:10 0.573991
40 *111:10 *111:9 1.43499
41 *111:34 *111:10 1.01999
42 *111:34 *111:33 0.861
43 *111:44 *713:A1N 1.01999
44 *111:44 *111:33 1.01999
45 *111:39 *111:44 0.0675284
*END

*D_NET *112 0.00167916

*CONN
*I *743:AN I *C 25.215 25.625 *L 0.00159 *D NAND2BX2M
*I *708:B I *C 26.035 25.625 *L 0.00607 *D NOR2X4M
*I *701:B I *C 24.805 22.755 *L 0.00223 *D OR3X2M
*I *512:Y O *C 19.885 22.345 *L 0 *D BUFX4M

*CAP
1 *743:AN 9.52315e-05
2 *708:B 5.64991e-05
3 *701:B 5.6028e-05
4 *512:Y 0.000176669
5 *112:4 0.00020881
6 *112:5 0.000201442
7 *112:6 7.25714e-05
8 *112:7 0.000202391
9 *112:8 0.000230380078
10 *112:9 0.000178532
11 *112:10 0.00010402
12 *112:11 9.6592e-05

*RES
1 *743:AN *708:B 0.548241
2 *112:11 *743:AN 1.02001
3 *112:10 *112:11 0.286988
4 *112:9 *112:10 0.143494
5 *112:8 *701:B 1.02001
6 *112:8 *112:9 0.717501
7 *112:7 *112:8 0.286988
8 *112:5 *112:7 0.717501
9 *112:5 *112:6 0.286988
10 *112:4 *112:6 1.02001
11 *512:Y *112:4 1.9188
*END

*D_NET *113 0.00162497

*CONN
*I *715:A I *C 77.695 77.285 *L 0.00581 *D NAND2X4M
*I *712:B0 I *C 75.235 80.155 *L 0.00581 *D AOI2B1X4M
*I *679:A1 I *C 78.925 80.155 *L 0.0015 *D OA21X2M
*I *513:Y O *C 80.565 79.745 *L 0 *D BUFX4M

*CAP
1 *715:A 5.60298e-05
2 *712:B0 5.60298e-05
3 *679:A1 5.60298e-05
4 *513:Y 5.60298e-05
5 *113:4 0.000135578
6 *113:5 0.000203608
7 *113:6 0.0001961
8 *113:7 0.00012807
9 *113:8 0.00029235
10 *113:9 0.000206597
11 *113:13 4.58499e-05
12 *113:14 4.63406e-05
13 *113:15 4.63406e-05
14 *113:16 0.000100011

*RES
1 *113:7 *715:A 1.02
2 *113:7 *113:6 0.430493
3 *113:12 *113:14 0.0675349
4 *113:14 *513:Y 1.02
5 *113:6 *113:5 0.430493
6 *113:14 *113:15 0.143504
7 *113:4 *679:A1 1.02
8 *113:5 *113:4 0.573998
9 *113:11 *113:4 0.20428
10 *113:16 *113:15 1.02
11 *113:8 *113:4 1.02
12 *113:8 *113:16 0.573998
13 *113:9 *113:8 1.29149997
14 *113:13 *712:B0 1.02
15 *113:13 *113:9 1.02
16 *113:10 *113:13 0.20428
*END

*D_NET *114 0.00175496

*CONN
*I *733:A0 I *C 34.235 39.975 *L 0.00313 *D OA22X4M
*I *725:A1N I *C 35.465 42.435 *L 0.00131 *D OAI2BB1X2M
*I *514:Y O *C 35.465 36.285 *L 0 *D BUFX2M

*CAP
1 *733:A0 5.60305e-05
2 *725:A1N 5.60305e-05
3 *514:Y 5.60305e-05
4 *114:3 0.00016191
5 *114:4 0.00016191
6 *114:5 7.96419e-05
7 *114:6 0.000122502
8 *114:7 9.48904e-05
9 *114:8 0.000111461
10 *114:9 7.36705e-05
11 *114:10 0.00012954
12 *114:11 0.00012954
13 *114:12 9.89421e-05
14 *114:13 9.89421e-05
15 *114:3 *96:9 0.00010199
16 *114:4 *96:8 0.00010199
17 *114:5 *96:9 1.438e-05
18 *114:6 *96:8 1.438e-05
19 *114:6 *96:9 4.79e-06
20 *114:7 *96:8 4.79e-06
21 *114:8 *96:7 4.08e-05
22 *114:9 *96:5 4.07999973e-05

*RES
1 *114:9 *514:Y 1.01999998
2 *114:9 *114:8 0.430499
3 *114:8 *114:4 0.286999
4 *114:4 *114:3 0.717499
5 *114:7 *114:3 0.286999
6 *114:5 *725:A1N 1.01999998
7 *114:7 *114:6 0.1435
8 *114:6 *114:5 0.430499
9 *114:10 *114:6 1.01999998
10 *114:11 *114:10 0.430499
11 *114:13 *114:11 1.01999998
12 *114:12 *114:13 0.430499
13 *733:A0 *114:12 1.01999998
*END

*D_NET *115 0.000661661

*CONN
*I *825:B0 I *C 50.635 60.065 *L 0.00179 *D AO21X2M
*I *741:A I *C 50.635 62.935 *L 0.00301 *D INVX2M
*I *515:Y O *C 51.455 63.755 *L 0 *D CLKBUFX2M

*CAP
1 *825:B0 5.60296e-05
2 *741:A 8.95898e-05
3 *515:Y 5.08621e-05
4 *115:3 0.00023259
5 *115:4 0.00023259

*RES
1 *741:A *515:Y 0.548225
2 *115:3 *741:A 1.01999998
3 *115:4 *115:3 1.0045
4 *825:B0 *115:4 1.01999998
*END

*D_NET *116 0.00383909

*CONN
*I *751:A I *C 36.695 31.365 *L 0.00435 *D CLKINVX4M
*I *658:B0 I *C 31.775 34.645 *L 0.00251 *D OAI2BB1X2M
*I *516:Y O *C 39.975 43.255 *L 0 *D BUFX4M

*CAP
1 *751:A 5.60313e-05
2 *658:B0 5.60313e-05
3 *516:Y 2.51504e-05
4 *116:3 0.000142209
5 *116:4 0.000142209
6 *116:5 7.73736e-05
7 *116:6 7.73736e-05
8 *116:7 0.000102598
9 *116:8 9.5165e-05
10 *116:9 0.000306642
11 *116:10 0.000306642
12 *116:11 0.00080245
13 *116:12 0.000395525
14 *116:13 0.00042119
15 *116:14 0.000215321
16 *116:15 0.000222742
17 *116:17 6.38801e-05
18 *116:18 4.58438e-05
19 *116:19 0.000142344
20 *116:20 0.000142344

*RES
1 *116:3 *658:B0 1.02001
2 *116:6 *751:A 1.02001
3 *116:4 *116:3 0.717509
4 *116:6 *116:5 0.430487
5 *116:12 *116:4 1.02001
6 *116:11 *116:5 1.02001
7 *116:12 *116:11 1.72201
8 *116:11 *116:13 2.00900006
9 *116:8 *116:13 1.02001
10 *116:8 *116:7 0.430487
11 *116:7 *116:10 0.143496
12 *116:10 *116:9 1.72201
13 *116:15 *116:9 0.143496
14 *116:15 *116:14 1.29149
15 *116:20 *116:14 1.02001
16 *116:19 *116:20 0.717509
17 *516:Y *116:17 0.274116
18 *116:18 *116:19 1.02001
19 *116:18 *116:17 1.02001
20 *116:16 *116:18 0.204284
*END

*D_NET *117 0.00193821

*CONN
*I *825:A0 I *C 50.225 60.065 *L 0.00184 *D AO21X2M
*I *517:Y O *C 47.765 69.495 *L 0 *D BUFX2M

*CAP
1 *825:A0 5.60311e-05
2 *517:Y 5.60311e-05
3 *117:2 0.000308372
4 *117:3 0.000308372
5 *117:4 5.32904e-05
6 *117:5 0.00039913
7 *117:6 0.000308049
8 *117:7 0.000175213
9 *117:8 0.000273724

*RES
1 *117:7 *825:A0 1.02
2 *117:7 *117:8 0.574
3 *117:5 *117:8 0.574
4 *117:5 *117:6 1.148
5 *117:3 *117:6 0.1435
6 *117:3 *117:2 1.148
7 *117:4 *117:2 0.1435
8 *517:Y *117:4 1.02
*END

*D_NET *118 0.00128661

*CONN
*I *754:A I *C 30.545 39.975 *L 0.00301 *D INVX2M
*I *690:A0N I *C 26.855 37.105 *L 0.0053 *D OAI2BB2X8M
*I *518:Y O *C 30.135 37.515 *L 0 *D BUFX4M

*CAP
1 *754:A 5.60309e-05
2 *690:A0N 5.60309e-05
3 *518:Y 2.51483e-05
4 *118:3 5.20599e-05
5 *118:4 5.20599e-05
6 *118:5 0.00022748
7 *118:6 0.00022748
8 *118:9 6.38791e-05
9 *118:10 6.60485e-05
10 *118:11 7.34802e-05
11 *118:12 8.49418e-05
12 *118:13 8.49418e-05
13 *118:14 0.000112228
14 *118:15 0.0001048

*RES
1 *118:15 *754:A 1.01999998
2 *118:14 *118:15 0.573999
3 *118:13 *118:14 0.1435
4 *118:12 *118:13 0.286999
5 *118:11 *118:12 0.1435
6 *118:9 *518:Y 0.274113
7 *118:8 *118:10 0.204277
8 *118:10 *118:11 0.286999
9 *118:10 *118:9 1.01999998
10 *118:5 *118:10 1.01999998
11 *118:3 *690:A0N 1.01999998
12 *118:6 *118:5 1.0045
13 *118:4 *118:3 0.1435
14 *118:4 *118:6 1.01999998
15 *118:7 *118:4 0.067532
*END

*D_NET *119 0.00453024

*CONN
*I *824:A I *C 68.265 42.845 *L 0.00305 *D XOR3X1M
*I *519:Y O *C 67.035 17.835 *L 0 *D CLKBUFX2M

*CAP
1 *824:A 5.60287e-05
2 *519:Y 5.60287e-05
3 *119:2 0.000568572813
4 *119:3 0.000568572813
5 *119:4 0.00038356
6 *119:5 0.00038356
7 *119:6 9.42286e-05
8 *119:7 9.42286e-05
9 *119:8 0.000520344
10 *119:9 0.000558127
11 *119:10 0.000112552
12 *119:11 7.47599e-05
13 *119:4 *77:29 1.62e-05
14 *119:5 *77:30 1.62e-05
15 *119:4 *77:31 3.817e-05
16 *119:5 *77:32 3.817e-05
17 *119:11 *77:33 1.62e-05
18 *119:10 *77:34 1.62e-05
19 *119:2 *77:24 7.114e-05
20 *119:3 *77:22 7.114e-05
21 *119:2 *77:14 1.687e-05
22 *119:3 *77:15 1.68700006e-05
23 *119:9 *80:13 0.00037126
24 *119:8 *80:14 0.000371260014

*RES
1 *119:11 *824:A 1.01999
2 *119:10 *119:11 0.430513
3 *119:10 *119:4 0.287009
4 *119:5 *119:4 2.00901
5 *119:9 *119:5 0.287009
6 *119:8 *119:9 3.15700006
7 *119:6 *119:8 1.01999
8 *119:7 *119:6 0.430513
9 *119:2 *119:7 1.01999
10 *119:3 *119:2 3.15700006
11 *519:Y *119:3 1.01999
*END

*D_NET *120 0.00505176

*CONN
*I *752:A I *C 50.635 37.105 *L 0.00127 *D INVXLM
*I *688:A1 I *C 47.765 22.755 *L 0.00868 *D OAI21X6M
*I *660:A1 I *C 53.095 34.235 *L 0.00595 *D OAI21X4M
*I *638:A1 I *C 56.375 22.755 *L 0.00868 *D OAI21X6M
*I *520:Y O *C 53.095 24.805 *L 0 *D BUFX8M

*CAP
1 *752:A 5.60264e-05
2 *688:A1 5.60264e-05
3 *660:A1 5.60264e-05
4 *638:A1 5.60264e-05
5 *520:Y 5.60264e-05
6 *120:5 0.000327131
7 *120:6 0.000357488
8 *120:7 0.00016022
9 *120:8 0.00016022
10 *120:9 0.000517139258
11 *120:10 0.000479349
12 *120:11 0.000462573
13 *120:12 0.000371865
14 *120:13 0.000123447
15 *120:14 0.000161356
16 *120:15 0.000118129
17 *120:16 0.000118129
18 *120:17 0.000142867
19 *120:19 0.000145953
20 *120:20 0.000145953
21 *120:21 5.5403e-05
22 *120:22 4.79696e-05
23 *120:23 5.5695e-05
24 *120:24 0.000174392
25 *120:25 0.000116338
26 *120:26 0.000147799
27 *120:27 5.18205e-05
28 *120:28 4.43871e-05
29 *120:29 0.000116338
30 *120:30 8.1112e-05
31 *120:31 8.85375e-05

*RES
1 *120:30 *660:A1 1.02001
2 *120:30 *120:31 0.286991
3 *120:27 *120:31 0.143496
4 *120:27 *120:28 0.143496
5 *120:22 *752:A 1.02001
6 *120:29 *120:28 1.02001
7 *120:21 *120:22 0.143496
8 *120:25 *120:29 0.574013
9 *120:21 *120:26 0.143496
10 *120:24 *120:25 1.02001
11 *120:24 *120:26 0.430487
12 *120:16 *638:A1 1.02001
13 *120:23 *120:24 0.143496
14 *120:16 *120:15 0.430487
15 *120:23 *120:5 0.143496
16 *120:19 *688:A1 1.02001
17 *120:13 *120:15 1.02001
18 *120:6 *120:5 1.0045
19 *120:19 *120:20 0.717509
20 *120:14 *120:13 0.717509
21 *120:6 *120:7 0.286991
22 *120:12 *120:20 1.02001
23 *120:14 *120:17 0.286991
24 *120:8 *120:7 0.574013
25 *120:12 *120:11 1.8655
26 *120:11 *120:17 0.430487
27 *120:8 *120:9 0.286991
28 *120:10 *120:11 1.02001
29 *120:10 *120:9 2.00900006
30 *120:10 *520:Y 1.02001
31 *120:18 *120:10 0.204284
*END

*D_NET *121 0.000611031

*CONN
*I *580:B I *C 12.505 62.935 *L 0.0115 *D XNOR2X8M
*I *521:Y O *C 15.375 60.475 *L 0 *D BUFX4M

*CAP
1 *580:B 5.60296e-05
2 *521:Y 7.54404e-05
3 *121:2 0.00011662
4 *121:3 0.000109191
5 *121:4 0.00010758
6 *121:5 6.93705e-05
7 *121:6 7.68e-05

*RES
1 *121:4 *521:Y 0.822338
2 *121:5 *121:4 1.01999998
3 *121:3 *580:B 1.01999998
4 *121:5 *121:6 0.286999
5 *121:2 *121:3 0.573999
6 *121:2 *121:6 0.1435
*END

*D_NET *122 0.00431746

*CONN
*I *819:B I *C 35.055 57.195 *L 0.00154 *D OR2X1M
*I *769:AN I *C 49.405 54.325 *L 0.00159 *D NAND2BX2M
*I *719:B I *C 46.535 53.915 *L 0.003 *D NAND3X2M
*I *522:Y O *C 42.845 54.735 *L 0 *D BUFX4M

*CAP
1 *819:B 5.60268e-05
2 *769:AN 5.60268e-05
3 *719:B 5.60268e-05
4 *522:Y 5.60268e-05
5 *122:4 0.000427448
6 *122:5 0.000420022
7 *122:6 5.20257e-05
8 *122:7 5.94626e-05
9 *122:8 0.000153163
10 *122:9 0.000153163
11 *122:10 0.00071254
12 *122:11 0.00049812
13 *122:12 0.000210636
14 *122:13 0.000210636
15 *122:14 0.000406116
16 *122:15 8.95255e-05
17 *122:16 0.000191685
18 *122:17 8.95255e-05
19 *122:14 *163:16 3.425e-05
20 *122:10 *163:17 3.425e-05
21 *122:14 *163:17 2.249e-05
22 *122:10 *163:14 2.249e-05
23 *122:10 *163:14 7.425e-05
24 *122:11 *163:15 7.425e-05
25 *122:17 *163:18 1.953e-05
26 *122:15 *163:19 1.953e-05
27 *122:13 *163:9 5.911e-05
28 *122:12 *163:10 5.9110008e-05

*RES
1 *122:17 *769:AN 1.01998
2 *122:8 *719:B 1.01998
3 *122:15 *122:17 0.717482
4 *122:9 *122:8 0.574018
5 *122:16 *122:15 1.01998
6 *122:13 *522:Y 1.01998
7 *122:14 *122:9 1.01998
8 *122:14 *122:16 1.00449
9 *122:12 *122:13 0.860987
10 *122:10 *122:14 1.2915
11 *122:10 *122:12 1.01998
12 *122:11 *122:10 2.58299994
13 *122:5 *122:11 1.01998
14 *122:6 *819:B 1.01998
15 *122:5 *122:4 1.435
16 *122:7 *122:6 0.143504
17 *122:7 *122:4 0.143504
*END

*D_NET *123 0.00259811

*CONN
*I *826:A0 I *C 38.335 62.935 *L 0.00566 *D OAI21BX4M
*I *785:A I *C 36.695 62.935 *L 0.00127 *D INVXLM
*I *765:A I *C 45.715 59.655 *L 0.00584 *D NOR2X4M
*I *523:Y O *C 47.765 60.475 *L 0 *D BUFX4M

*CAP
1 *826:A0 5.60284e-05
2 *785:A 5.60284e-05
3 *765:A 5.60284e-05
4 *523:Y 2.51531e-05
5 *123:4 0.000270642
6 *123:5 0.000270642
7 *123:6 8.17339e-05
8 *123:7 0.00072394
9 *123:8 0.000656456
10 *123:9 0.000100016
11 *123:10 0.000100016
12 *123:15 4.58545e-05
13 *123:16 4.58545e-05
14 *123:17 6.38826e-05
15 *123:18 4.58545e-05

*RES
1 *123:17 *523:Y 0.274121
2 *123:14 *123:18 0.20428
3 *123:18 *123:17 1.01998
4 *123:16 *765:A 1.01998
5 *123:13 *123:16 0.20428
6 *123:6 *123:18 1.01998
7 *123:7 *123:16 1.01998
8 *123:7 *123:6 0.574018
9 *123:8 *123:7 2.58299994
10 *123:5 *123:8 1.01998
11 *123:4 *826:A0 1.01998
12 *123:12 *123:4 0.20428
13 *123:5 *123:4 1.148
14 *123:9 *123:4 1.01998
15 *123:10 *123:9 0.574018
16 *123:15 *785:A 1.01998
17 *123:15 *123:10 1.01998
18 *123:11 *123:15 0.20428
*END

*D_NET *124 0.00106308

*CONN
*I *824:B I *C 63.755 42.845 *L 0.00319 *D XOR3X1M
*I *524:Y O *C 67.855 40.795 *L 0 *D BUFX2M

*CAP
1 *824:B 5.60313e-05
2 *524:Y 5.60313e-05
3 *124:2 0.000106514
4 *124:3 0.000113939
5 *124:4 0.00027888
6 *124:5 0.00027888
7 *124:6 5.97591e-05
8 *124:7 5.97591e-05
9 *124:9 5.32908e-05

*RES
1 *124:9 *524:Y 1.02
2 *124:3 *124:9 0.143504
3 *124:3 *124:2 0.573998
4 *124:4 *124:2 1.02
5 *124:6 *824:B 1.02
6 *124:5 *124:4 1.29149997
7 *124:7 *124:6 0.143504
8 *124:7 *124:5 1.02
9 *124:8 *124:7 0.0675349
*END

*D_NET *125 0.00132445

*CONN
*I *750:A I *C 78.105 62.935 *L 0.0085 *D NAND2X6M
*I *745:B0 I *C 77.285 57.195 *L 0.00179 *D AO21X2M
*I *726:A1 I *C 76.465 62.935 *L 0.0015 *D OA21X2M
*I *525:Y O *C 76.465 60.475 *L 0 *D BUFX4M

*CAP
1 *750:A 5.60324e-05
2 *745:B0 5.60324e-05
3 *726:A1 5.60324e-05
4 *525:Y 7.54405e-05
5 *125:4 0.000118979
6 *125:5 0.000111589
7 *125:6 0.000114648
8 *125:7 4.6622e-05
9 *125:8 9.50233e-05
10 *125:9 0.00010758
11 *125:10 0.000189201
12 *125:11 0.00022909
13 *125:12 6.81799e-05

*RES
1 *125:5 *745:B0 1.01999998
2 *125:7 *726:A1 1.01999998
3 *125:5 *125:4 0.717499
4 *125:6 *125:7 0.1435
5 *125:12 *750:A 1.01999998
6 *125:4 *125:8 0.1435
7 *125:6 *125:11 0.430499
8 *125:11 *125:12 0.286999
9 *125:8 *125:10 0.430499
10 *125:10 *125:11 0.573999
11 *125:9 *125:10 1.01999998
12 *525:Y *125:9 0.822338
*END

*D_NET *126 0.000921111

*CONN
*I *731:A I *C 74.005 60.065 *L 0.00181 *D AND3X2M
*I *526:Y O *C 71.135 63.755 *L 0 *D BUFX2M

*CAP
1 *731:A 5.60304e-05
2 *526:Y 5.60304e-05
3 *126:2 0.00018087
4 *126:3 0.00018087
5 *126:4 0.00020073
6 *126:5 0.00020073
7 *126:7 4.58523e-05

*RES
1 *126:2 *526:Y 1.01999998
2 *126:3 *126:2 0.860999
3 *126:5 *126:3 1.01999998
4 *126:5 *126:4 1.0045
5 *126:7 *731:A 1.01999998
6 *126:7 *126:4 1.01999998
7 *126:6 *126:7 0.204277
*END

*D_NET *127 0.00426444

*CONN
*I *763:A I *C 33.825 34.235 *L 0.00317 *D NAND2X2M
*I *762:A I *C 32.595 36.695 *L 0.00584 *D NOR2X4M
*I *760:B I *C 35.875 39.975 *L 0.00611 *D NOR2BX4M
*I *747:A I *C 35.465 28.905 *L 0.00199 *D OR2X2M
*I *619:A1N I *C 30.135 30.955 *L 0.00131 *D OAI2BB1X2M
*I *527:Y O *C 35.055 30.545 *L 0 *D BUFX8M

*CAP
1 *763:A 5.60252e-05
2 *762:A 5.60252e-05
3 *760:B 5.60252e-05
4 *747:A 5.60252e-05
5 *619:A1N 5.60252e-05
6 *527:Y 9.11209e-05
7 *127:6 0.000447308
8 *127:7 0.00013423
9 *127:8 5.40492e-05
10 *127:9 9.48986e-05
11 *127:10 0.00013181
12 *127:11 0.00019996
13 *127:12 6.99516e-05
14 *127:13 0.000368
15 *127:14 0.000368
16 *127:15 0.00010148
17 *127:16 0.000199989
18 *127:17 0.00012326
19 *127:18 0.000215042
20 *127:19 0.000476091016
21 *127:20 0.00019858
22 *127:21 0.00019858
23 *127:24 0.000108847
24 *127:25 0.000237722
25 *127:26 4.58547e-05
26 *127:27 5.97593e-05
27 *127:28 5.97593e-05

*RES
1 *127:28 *760:B 1.02
2 *127:23 *127:27 0.0675284
3 *127:27 *127:28 0.143509
4 *127:20 *127:27 1.02
5 *127:21 *127:20 1.148
6 *127:10 *763:A 1.02
7 *127:18 *127:21 1.02
8 *127:11 *127:10 0.573991
9 *127:19 *762:A 1.02
10 *127:19 *127:18 1.0045
11 *127:6 *127:11 0.430504
12 *127:6 *127:19 1.43499994
13 *127:7 *127:6 0.430504
14 *127:8 *127:7 0.143509
15 *127:17 *527:Y 1.09646
16 *127:15 *619:A1N 1.02
17 *127:9 *127:8 0.143509
18 *127:9 *127:17 1.02
19 *127:16 *127:15 0.286996
20 *127:12 *127:9 0.286996
21 *127:16 *127:25 0.573991
22 *127:25 *127:12 0.143509
23 *127:24 *127:25 0.430504
24 *127:14 *127:24 1.02
25 *127:14 *127:13 1.29149
26 *127:26 *747:A 1.02
27 *127:26 *127:13 1.02
28 *127:22 *127:26 0.204271
*END

*D_NET *128 0.00208066

*CONN
*I *768:B I *C 75.235 54.325 *L 0.00611 *D NOR2BX4M
*I *731:B I *C 73.185 60.475 *L 0.00188 *D AND3X2M
*I *528:Y O *C 79.335 55.145 *L 0 *D CLKBUFX4M

*CAP
1 *768:B 5.60314e-05
2 *731:B 5.60314e-05
3 *528:Y 5.60314e-05
4 *128:3 0.000131731
5 *128:4 0.00013912
6 *128:5 0.00029774
7 *128:6 0.00042178
8 *128:7 0.000138302
9 *128:8 7.95033e-05
10 *128:9 7.95033e-05
11 *128:10 0.000271649
12 *128:11 0.00026426
13 *128:13 4.44917e-05
14 *128:14 4.44917e-05

*RES
1 *128:3 *731:B 1.01999
2 *128:4 *128:3 0.573993
3 *128:4 *128:10 0.143504
4 *128:9 *768:B 1.01999
5 *128:11 *128:10 1.29149
6 *128:9 *128:8 0.287009
7 *128:7 *128:11 1.01999
8 *128:6 *128:8 1.01999
9 *128:7 *128:6 0.573993
10 *128:6 *128:5 1.57850003
11 *128:14 *128:5 1.01999
12 *128:13 *128:14 0.143504
13 *128:13 *528:Y 1.01999
14 *128:12 *128:13 0.0675371
*END

*D_NET *129 0.000961606

*CONN
*I *778:B I *C 52.685 28.495 *L 0.00291 *D NAND2BX2M
*I *772:A I *C 51.045 28.495 *L 0.00317 *D NAND2X2M
*I *529:Y O *C 47.765 29.315 *L 0 *D CLKBUFX2M

*CAP
1 *778:B 5.60312e-05
2 *772:A 5.60312e-05
3 *529:Y 2.48216e-05
4 *129:6 6.35535e-05
5 *129:7 4.58496e-05
6 *129:8 0.000195268
7 *129:9 4.58496e-05
8 *129:10 0.00030468
9 *129:11 4.58496e-05
10 *129:12 0.000123671

*RES
1 *129:11 *778:B 1.01999998
2 *129:5 *129:11 0.204277
3 *129:9 *772:A 1.01999998
4 *129:4 *129:9 0.204277
5 *129:12 *129:11 1.01999998
6 *129:10 *129:9 1.01999998
7 *129:10 *129:12 0.573999
8 *129:8 *129:10 1.0045
9 *529:Y *129:6 0.274113
10 *129:7 *129:8 1.01999998
11 *129:7 *129:6 1.01999998
12 *129:3 *129:7 0.204277
*END

*D_NET *130 0.00521461

*CONN
*I *770:A I *C 36.285 60.065 *L 0.00361 *D AND2X6M
*I *755:A I *C 46.125 62.935 *L 0.00317 *D NAND2X2M
*I *681:C I *C 33.005 60.065 *L 0.00292 *D NAND3X2M
*I *594:D I *C 44.485 49.405 *L 0.00103 *D SDFFRQX2M
*I *530:Y O *C 46.535 51.045 *L 0 *D BUFX4M

*CAP
1 *770:A 5.60285e-05
2 *755:A 5.60285e-05
3 *681:C 5.60285e-05
4 *594:D 5.60285e-05
5 *530:Y 5.60285e-05
6 *130:5 7.81612e-05
7 *130:6 7.81612e-05
8 *130:7 0.000787439453
9 *130:8 0.000787439453
10 *130:9 9.14384e-05
11 *130:10 9.14384e-05
12 *130:11 0.000100859
13 *130:12 0.000100859
14 *130:13 0.000157716
15 *130:14 0.000266793
16 *130:15 0.000161249
17 *130:16 9.52233e-05
18 *130:17 0.0002936
19 *130:18 0.000220101
20 *130:19 0.000594337
21 *130:20 0.000367592
22 *130:23 4.58514e-05
23 *130:24 4.58514e-05
24 *130:25 9.10058e-05
25 *130:26 0.000316814
26 *130:27 0.000115433
27 *130:28 4.70769e-05

*RES
1 *130:11 *530:Y 1.02002
2 *130:6 *594:D 1.02002
3 *130:12 *130:11 0.287011
4 *130:6 *130:5 0.287011
5 *130:13 *130:12 1.02002
6 *130:9 *755:A 1.02002
7 *130:14 *130:5 1.02002
8 *130:14 *130:13 0.717502
9 *130:10 *130:9 0.430491
10 *130:15 *130:14 0.717502
11 *130:28 *130:10 1.02002
12 *130:15 *130:25 0.287011
13 *130:27 *130:28 0.14348
14 *130:8 *130:25 1.02002
15 *130:26 *130:27 0.430491
16 *130:8 *130:7 3.30049992
17 *130:19 *130:26 1.14799
18 *130:19 *130:7 1.02002
19 *130:20 *130:19 1.72202
20 *130:24 *770:A 1.02002
21 *130:22 *130:24 0.0350013
22 *130:16 *130:20 0.14348
23 *130:17 *130:24 1.02002
24 *130:17 *130:16 0.430491
25 *130:18 *130:17 1.14799
26 *130:23 *681:C 1.02002
27 *130:23 *130:18 1.02002
28 *130:21 *130:23 0.204267
*END

*D_NET *131 0.00230749

*CONN
*I *763:B I *C 33.005 34.235 *L 0.00294 *D NAND2X2M
*I *762:B I *C 33.415 37.105 *L 0.00607 *D NOR2X4M
*I *733:B1 I *C 33.005 39.975 *L 0.00313 *D OA22X4M
*I *658:A0N I *C 30.955 33.415 *L 0.00141 *D OAI2BB1X2M
*I *531:Y O *C 28.905 33.825 *L 0 *D BUFX4M

*CAP
1 *763:B 5.60312e-05
2 *762:B 5.60312e-05
3 *733:B1 5.60312e-05
4 *658:A0N 2.79293e-05
5 *531:Y 5.60312e-05
6 *131:5 0.000166602
7 *131:6 0.000125139
8 *131:7 0.000121068
9 *131:8 0.000201980273
10 *131:9 0.000171629
11 *131:10 0.000179062
12 *131:11 8.79393e-05
13 *131:12 0.00018645
14 *131:13 0.000147259
15 *131:14 6.6658e-05
16 *131:15 4.87514e-05
17 *131:16 0.00018988
18 *131:17 0.000102579
19 *131:18 0.00018988
20 *131:19 7.05598e-05

*RES
1 *131:9 *733:B1 1.01999998
2 *131:10 *131:9 0.717499
3 *131:10 *131:19 0.1435
4 *131:5 *762:B 1.01999998
5 *131:5 *131:19 0.286999
6 *131:6 *131:5 0.573999
7 *131:7 *131:6 0.1435
8 *131:8 *763:B 1.01999998
9 *131:8 *131:7 0.430499
10 *131:17 *131:8 0.286999
11 *131:18 *131:17 1.01999998
12 *131:14 *658:A0N 0.274113
13 *131:16 *131:18 0.860999
14 *131:15 *131:14 1.01999998
15 *131:15 *131:16 1.01999998
16 *131:13 *131:15 0.1435
17 *131:11 *531:Y 1.01999998
18 *131:12 *131:13 0.573999
19 *131:12 *131:11 0.286999
*END

*D_NET *132 0.0110622

*CONN
*I *747:B I *C 36.285 28.085 *L 0.00207 *D OR2X2M
*I *727:C I *C 36.695 25.625 *L 0.00287 *D AND3X4M
*I *704:B I *C 53.915 31.365 *L 0.00294 *D NAND2X2M
*I *699:B I *C 57.195 28.495 *L 0.00294 *D NAND2X2M
*I *678:B I *C 52.685 42.845 *L 0.00607 *D NOR2X4M
*I *629:D I *C 41.615 43.665 *L 0.00103 *D SDFFRQX2M
*I *532:Y O *C 56.785 42.025 *L 0 *D BUFX8M

*CAP
1 *747:B 5.60364e-05
2 *727:C 5.60364e-05
3 *704:B 5.60364e-05
4 *699:B 5.60364e-05
5 *678:B 5.60364e-05
6 *629:D 5.60364e-05
7 *532:Y 5.60364e-05
8 *132:7 0.000368464
9 *132:8 0.000368464
10 *132:9 6.18918e-05
11 *132:10 0.000151669
12 *132:11 0.000105316
13 *132:12 0.000216345
14 *132:13 0.000216345
15 *132:14 0.000243984
16 *132:15 0.000365434
17 *132:16 0.000293223
18 *132:17 0.000300635
19 *132:18 0.000508074
20 *132:19 0.000632124
21 *132:20 0.000100874
22 *132:21 0.000108265
23 *132:22 0.00134174
24 *132:23 0.00134174
25 *132:24 0.000145731
26 *132:25 0.000229366
27 *132:26 0.000100485
28 *132:27 0.000336136
29 *132:28 0.000393503
30 *132:29 0.000445814
31 *132:30 0.000445814
32 *132:31 0.000149888
33 *132:32 0.00015734
34 *132:33 0.000108838
35 *132:34 0.000158732
36 *132:35 0.000147656
37 *132:36 0.000363653
38 *132:37 0.000237658
39 *132:27 *110:10 6.03e-06
40 *132:28 *110:11 6.03e-06
41 *132:18 *110:12 0.00025639
42 *132:19 *110:13 0.00025639001

*RES
1 *132:7 *629:D 1.02004
2 *132:26 *704:B 1.02004
3 *132:8 *132:7 1.57851
4 *132:26 *132:25 0.430483
5 *132:31 *132:8 1.02004
6 *132:15 *132:25 0.717544
7 *132:31 *132:32 0.717544
8 *132:15 *132:14 1.0045
9 *132:30 *132:32 0.143531
10 *132:17 *132:14 0.143531
11 *132:30 *132:29 2.29605
12 *132:12 *678:B 1.02004
13 *132:17 *132:16 1.29145
14 *132:29 *132:33 0.143531
15 *132:13 *132:12 1.29145
16 *132:34 *132:16 1.02004
17 *132:33 *132:34 0.430483
18 *132:28 *132:13 1.02004
19 *132:34 *132:28 0.430483
20 *132:28 *132:27 1.72204
21 *132:37 *532:Y 1.02004
22 *132:36 *132:27 1.02004
23 *132:36 *132:37 1.14803
24 *132:35 *132:36 0.717544
25 *132:18 *132:35 0.143531
26 *132:19 *699:B 1.02004
27 *132:19 *132:18 3.01349
28 *132:24 *132:19 0.430483
29 *132:22 *132:24 1.02004
30 *132:23 *132:22 7.17500019
31 *132:11 *727:C 1.02004
32 *132:9 *132:23 1.02004
33 *132:20 *747:B 1.02004
34 *132:11 *132:10 0.430483
35 *132:10 *132:9 0.143531
36 *132:21 *132:20 0.430483
37 *132:21 *132:10 0.143531
*END

*D_NET *133 0.00322153

*CONN
*I *824:C I *C 61.705 43.665 *L 0.00373 *D XOR3X1M
*I *629:SI I *C 43.255 42.845 *L 0.000896 *D SDFFRQX2M
*I *533:Y O *C 55.965 46.535 *L 0 *D CLKBUFX2M

*CAP
1 *824:C 5.60302e-05
2 *629:SI 5.60302e-05
3 *533:Y 5.60302e-05
4 *133:3 0.00102055
5 *133:4 0.000676832
6 *133:6 0.00016468
7 *133:7 0.00016468
8 *133:8 4.58613e-05
9 *133:9 0.000124472
10 *133:10 0.000124472
11 *133:11 0.000357983
12 *133:3 *145:27 5.967e-05
13 *133:4 *145:26 5.967e-05
14 *133:3 *145:25 5.511e-05
15 *133:4 *145:23 5.511e-05
16 *133:3 *145:16 7.219e-05
17 *133:4 *145:17 7.21900015e-05

*RES
1 *133:6 *629:SI 1.02001
2 *133:9 *824:C 1.02001
3 *133:6 *133:7 0.860974
4 *133:9 *133:10 0.573982
5 *133:4 *133:7 1.02001
6 *133:11 *133:10 1.02001
7 *133:4 *133:3 4.44850016
8 *133:3 *133:11 2.00901
9 *133:8 *133:3 1.02001
10 *133:8 *533:Y 1.02001
11 *133:5 *133:8 0.204247
*END

*D_NET *134 0.00124876

*CONN
*I *822:A I *C 60.885 19.885 *L 0.003 *D XNOR3X2M
*I *534:Y O *C 55.145 17.835 *L 0 *D BUFX2M

*CAP
1 *822:A 5.60278e-05
2 *534:Y 5.60278e-05
3 *134:2 0.000138381
4 *134:3 0.000138381
5 *134:4 7.35872e-05
6 *134:5 7.35872e-05
7 *134:6 0.00035638
8 *134:7 0.00035638

*RES
1 *134:4 *822:A 1.02001
2 *134:5 *134:4 0.286991
3 *134:6 *134:5 1.02001
4 *134:7 *134:6 2.00900006
5 *134:2 *134:7 1.02001
6 *134:3 *134:2 0.430487
7 *534:Y *134:3 1.02001
*END

*D_NET *135 0.0012063

*CONN
*I *580:A I *C 17.015 62.935 *L 0.0089 *D XNOR2X8M
*I *535:Y O *C 23.165 62.525 *L 0 *D BUFX4M

*CAP
1 *580:A 5.60274e-05
2 *535:Y 2.5149e-05
3 *135:3 8.11273e-05
4 *135:4 8.11273e-05
5 *135:5 0.00040287
6 *135:6 6.38777e-05
7 *135:7 4.66219e-05
8 *135:8 4.66219e-05
9 *135:9 0.00040287

*RES
1 *135:3 *580:A 1.02001
2 *135:3 *135:4 0.286991
3 *135:5 *135:4 1.02001
4 *135:5 *135:9 2.00900006
5 *135:8 *135:9 1.02001
6 *135:6 *535:Y 0.274116
7 *135:7 *135:8 0.143496
8 *135:7 *135:6 1.02001
9 *135:2 *135:7 0.0675328
*END

*D_NET *136 0.00221802

*CONN
*I *686:B I *C 74.415 77.285 *L 0.00607 *D NOR2X4M
*I *640:A1 I *C 75.645 71.545 *L 0.00124 *D AO21X1M
*I *536:Y O *C 71.135 71.955 *L 0 *D BUFX4M

*CAP
1 *686:B 5.60274e-05
2 *640:A1 5.60274e-05
3 *536:Y 5.60274e-05
4 *136:3 0.000254091
5 *136:4 0.00024527
6 *136:5 5.03904e-05
7 *136:6 5.77789e-05
8 *136:7 7.55782e-05
9 *136:8 0.000105898
10 *136:9 8.76275e-05
11 *136:10 8.76275e-05
12 *136:11 0.00032152
13 *136:12 0.00032152
14 *136:15 4.58473e-05
15 *136:16 4.31294e-05
16 *136:3 *2:121 0.00015642
17 *136:4 *2:122 0.00015642
18 *136:4 *2:121 2.04e-05
19 *136:16 *2:122 2.03999862e-05

*RES
1 *136:5 *686:B 1.01999
2 *136:6 *136:5 0.143504
3 *136:7 *136:6 0.143504
4 *136:8 *136:7 0.430489
5 *136:8 *136:9 0.287009
6 *136:10 *136:9 0.143504
7 *136:16 *640:A1 1.01999
8 *136:14 *136:16 0.0675371
9 *136:10 *136:3 0.287009
10 *136:16 *136:4 0.143504
11 *136:4 *136:3 1.14801
12 *136:11 *136:4 1.01999
13 *136:12 *136:11 1.57850003
14 *136:15 *136:12 1.01999
15 *136:15 *536:Y 1.01999
16 *136:13 *136:15 0.204273
*END

*D_NET *137 0.00272013

*CONN
*I *775:A1 I *C 38.745 71.545 *L 0.00197 *D AO22X2M
*I *716:B I *C 36.285 65.805 *L 0.00291 *D NAND2BX2M
*I *641:A1 I *C 37.925 68.675 *L 0.00595 *D OAI21X4M
*I *537:Y O *C 37.925 60.475 *L 0 *D BUFX4M

*CAP
1 *775:A1 5.60293e-05
2 *716:B 5.60293e-05
3 *641:A1 5.60293e-05
4 *537:Y 2.51506e-05
5 *137:4 0.000266193
6 *137:5 0.0002604
7 *137:6 7.78624e-05
8 *137:7 7.23717e-05
9 *137:8 0.000102732
10 *137:9 6.38803e-05
11 *137:10 0.000464166
12 *137:11 0.0004716
13 *137:12 5.90373e-05
14 *137:13 0.000218267
15 *137:14 0.000254089
16 *137:15 0.000216302

*RES
1 *137:9 *537:Y 0.274121
2 *137:15 *775:A1 1.02
3 *137:10 *137:9 1.02
4 *137:12 *641:A1 1.02
5 *137:14 *137:15 0.717496
6 *137:10 *137:11 1.86549997
7 *137:12 *137:13 0.286987
8 *137:13 *137:14 0.286987
9 *137:7 *137:11 0.143493
10 *137:4 *137:13 0.574002
11 *137:7 *137:8 0.286987
12 *137:5 *137:4 1.00451
13 *137:5 *137:8 0.286987
14 *137:6 *137:5 0.286987
15 *716:B *137:6 1.02
*END

*D_NET *138 0.000742049

*CONN
*I *771:B I *C 75.235 57.195 *L 0.00607 *D NOR2X4M
*I *745:A1 I *C 76.055 57.195 *L 0.00176 *D AO21X2M
*I *538:Y O *C 72.365 56.785 *L 0 *D CLKBUFX6M

*CAP
1 *771:B 4.95983e-05
2 *745:A1 8.83316e-05
3 *538:Y 5.60306e-05
4 *138:3 0.00020286
5 *138:4 0.00020286
6 *138:5 4.8258e-05
7 *138:6 4.8258e-05
8 *138:9 4.58497e-05

*RES
1 *771:B *745:A1 0.548232
2 *138:9 *745:A1 1.02
3 *138:8 *138:9 0.204267
4 *138:3 *138:9 1.02
5 *138:4 *138:3 1.148
6 *138:5 *138:4 1.02
7 *138:6 *138:5 0.1435
8 *138:6 *538:Y 1.02
9 *138:7 *138:6 0.0675284
*END

*D_NET *139 0.00158533

*CONN
*I *776:A I *C 59.655 74.415 *L 0.00396 *D OR3X4M
*I *652:B I *C 61.295 77.285 *L 0.00834 *D NAND4X6M
*I *539:Y O *C 65.805 77.695 *L 0 *D BUFX4M

*CAP
1 *776:A 5.60258e-05
2 *652:B 2.73233e-05
3 *539:Y 4.95975e-05
4 *139:3 0.000157904
5 *139:4 0.000120194
6 *139:5 9.65925e-05
7 *139:6 0.000134303
8 *139:8 5.94593e-05
9 *139:9 0.00037817
10 *139:10 8.17392e-05
11 *139:11 4.58524e-05
12 *139:12 0.00037817

*RES
1 *139:4 *776:A 1.02001
2 *139:4 *139:3 0.717509
3 *139:8 *652:B 0.274116
4 *139:3 *139:6 0.286991
5 *139:5 *139:8 1.02001
6 *139:6 *139:5 0.286991
7 *139:9 *139:5 1.02001
8 *139:9 *139:12 2.00900006
9 *539:Y *139:10 0.548232
10 *139:11 *139:12 1.02001
11 *139:11 *139:10 1.02001
12 *139:7 *139:11 0.204284
*END

*D_NET *140 0.00216772

*CONN
*I *776:B I *C 59.245 74.415 *L 0.00436 *D OR3X4M
*I *677:A1 I *C 55.555 74.415 *L 0.00124 *D AO21X1M
*I *540:Y O *C 56.375 64.985 *L 0 *D BUFX2M

*CAP
1 *776:B 5.60262e-05
2 *677:A1 5.60262e-05
3 *540:Y 5.60262e-05
4 *140:3 0.00050798
5 *140:4 0.000470185
6 *140:6 0.000166342
7 *140:7 0.000160932
8 *140:8 0.000300858
9 *140:9 4.66162e-05
10 *140:10 4.58488e-05
11 *140:11 0.000300858

*RES
1 *140:4 *540:Y 1.01999
2 *140:4 *140:3 2.15249991
3 *140:6 *140:3 0.286996
4 *140:9 *677:A1 1.01999
5 *140:6 *140:7 0.573991
6 *140:7 *140:9 0.143498
7 *140:8 *140:7 1.01999
8 *140:8 *140:11 1.29151
9 *140:10 *776:B 1.01999
10 *140:10 *140:11 1.01999
11 *140:5 *140:10 0.0350123
*END

*D_NET *141 0.00052238

*CONN
*I *806:A I *C 47.765 19.885 *L 0.00435 *D CLKINVX4M
*I *541:Y O *C 48.175 17.835 *L 0 *D BUFX2M

*CAP
1 *806:A 2.48209e-05
2 *541:Y 5.60294e-05
3 *141:2 0.00018899
4 *141:3 6.35504e-05
5 *141:4 0.00018899

*RES
1 *141:2 *541:Y 1.01999998
2 *141:2 *141:4 0.717499
3 *141:3 *141:4 1.01999998
4 *806:A *141:3 0.274113
*END

*D_NET *142 0.00213283

*CONN
*I *736:C I *C 41.205 25.625 *L 0.00188 *D AND3X2M
*I *542:Y O *C 38.745 17.835 *L 0 *D BUFX2M

*CAP
1 *736:C 5.60303e-05
2 *542:Y 5.60303e-05
3 *142:2 0.00037719
4 *142:3 0.00031655
5 *142:4 0.000265026
6 *142:5 0.000257641
7 *142:7 4.58487e-05
8 *142:8 0.00025965
9 *142:9 8.55908e-05
10 *142:10 0.000153616
11 *142:11 0.00025965

*RES
1 *142:9 *736:C 1.02
2 *142:9 *142:10 0.286987
3 *142:10 *142:2 0.430509
4 *142:3 *142:2 1.86549997
5 *142:4 *142:3 0.143493
6 *142:5 *142:4 1.148
7 *142:11 *142:5 1.02
8 *142:8 *142:11 1.148
9 *142:7 *142:8 1.02
10 *142:7 *542:Y 1.02
11 *142:6 *142:7 0.204267
*END

*D_NET *143 0.000509721

*CONN
*I *786:A I *C 44.485 25.625 *L 0.00214 *D CLKAND2X4M
*I *543:Y O *C 43.665 29.315 *L 0 *D BUFX2M

*CAP
1 *786:A 5.60293e-05
2 *543:Y 5.60293e-05
3 *143:2 0.00012311
4 *143:3 8.54002e-05
5 *143:4 7.57201e-05
6 *143:5 0.00011343

*RES
1 *143:4 *786:A 1.01999998
2 *143:4 *143:5 0.286999
3 *143:3 *543:Y 1.01999998
4 *143:2 *143:5 0.286999
5 *143:2 *143:3 0.430499
*END

*D_NET *144 0.000679645

*CONN
*I *645:A1 I *C 45.715 74.415 *L 0.00595 *D OAI21X4M
*I *544:Y O *C 44.075 76.465 *L 0 *D CLKBUFX2M

*CAP
1 *645:A1 5.60323e-05
2 *544:Y 5.60323e-05
3 *144:2 0.000158269
4 *144:3 5.97618e-05
5 *144:4 0.000125523
6 *144:5 0.00022403

*RES
1 *144:4 *645:A1 1.01999998
2 *144:4 *144:5 0.573999
3 *144:3 *544:Y 1.01999998
4 *144:2 *144:5 0.573999
5 *144:2 *144:3 0.1435
*END

*D_NET *145 0.00747866

*CONN
*I *760:AN I *C 37.925 39.975 *L 0.00276 *D NOR2BX4M
*I *758:B I *C 37.105 45.715 *L 0.00291 *D NAND2BX2M
*I *748:C I *C 54.325 63.345 *L 0.00297 *D NAND3BX2M
*I *733:A1 I *C 35.055 39.975 *L 0.0029 *D OA22X4M
*I *730:A0N I *C 53.915 60.885 *L 0.00141 *D OAI2BB1X2M
*I *725:B0 I *C 35.055 42.435 *L 0.00251 *D OAI2BB1X2M
*I *545:Y O *C 55.145 53.505 *L 0 *D BUFX8M

*CAP
1 *760:AN 5.60317e-05
2 *758:B 5.60317e-05
3 *748:C 5.60317e-05
4 *733:A1 5.60317e-05
5 *730:A0N 2.65578e-05
6 *725:B0 5.60317e-05
7 *545:Y 5.60317e-05
8 *145:7 0.000278924
9 *145:8 0.000241148
10 *145:9 5.74005e-05
11 *145:10 0.000113477
12 *145:11 0.000108106
13 *145:12 0.00097505
14 *145:13 0.000521262
15 *145:14 0.0001614
16 *145:15 0.000131152
17 *145:16 0.000434313
18 *145:17 0.000403872
19 *145:18 0.000553592
20 *145:19 0.000203758
21 *145:20 9.99376e-05
22 *145:21 0.000107362
23 *145:22 5.19253e-05
24 *145:23 0.000186797
25 *145:24 0.000371556
26 *145:25 0.000186797
27 *145:26 0.000116348
28 *145:27 7.84533e-05
29 *145:28 6.5286e-05
30 *145:29 0.000568069
31 *145:30 0.00011428
32 *145:27 *133:3 5.967e-05
33 *145:26 *133:4 5.967e-05
34 *145:25 *133:3 5.511e-05
35 *145:23 *133:4 5.511e-05
36 *145:16 *133:3 7.219e-05
37 *145:17 *133:4 7.21900015e-05
38 *145:12 *424:4 9.559e-05
39 *145:13 *424:3 9.55899968e-05
40 *145:12 *44:5 0.00021026
41 *145:13 *44:3 0.000210260003

*RES
1 *730:A0N *145:28 0.274107
2 *145:30 *748:C 1.02002
3 *145:29 *145:28 1.02002
4 *145:29 *145:30 0.717483
5 *145:12 *145:29 2.1525
6 *145:12 *545:Y 1.02002
7 *145:13 *145:12 3.44400001
8 *145:27 *145:13 1.02002
9 *145:26 *145:27 0.4305
10 *145:16 *145:26 0.286982
11 *145:8 *760:AN 1.02002
12 *145:17 *145:16 2.43948
13 *145:8 *145:7 1.43502
14 *145:17 *145:25 0.143518
15 *145:11 *145:7 0.286982
16 *145:9 *758:B 1.02002
17 *145:23 *145:25 1.2915
18 *145:11 *145:10 0.286982
19 *145:10 *145:9 0.286982
20 *145:23 *145:24 0.143518
21 *145:15 *733:A1 1.02002
22 *145:18 *145:10 1.02002
23 *145:18 *145:24 1.86552
24 *145:14 *725:B0 1.02002
25 *145:15 *145:14 0.861
26 *145:19 *145:18 0.861
27 *145:14 *145:22 0.143518
28 *145:20 *145:19 1.02002
29 *145:21 *145:22 0.143518
30 *145:21 *145:20 0.717483
*END

*D_NET *146 0.00309492

*CONN
*I *740:A I *C 31.365 77.285 *L 0.00307 *D MX3X2M
*I *673:SI I *C 14.965 77.285 *L 0.000896 *D SDFFRQX2M
*I *546:Y O *C 25.215 75.235 *L 0 *D CLKBUFX2M

*CAP
1 *740:A 5.6028e-05
2 *673:SI 5.6028e-05
3 *546:Y 5.6028e-05
4 *146:3 0.000106011
5 *146:4 0.000106011
6 *146:5 8.09839e-05
7 *146:6 8.09839e-05
8 *146:7 0.000276151
9 *146:8 0.000283607
10 *146:9 0.000120985
11 *146:10 0.00067028
12 *146:11 0.000571019
13 *146:12 0.000104477
14 *146:13 0.000104477
15 *146:9 *219:12 4.013e-05
16 *146:10 *219:5 4.013e-05
17 *146:10 *219:12 3.052e-05
18 *146:11 *219:5 3.052e-05
19 *146:10 *219:5 0.00014028
20 *146:11 *219:6 0.000140280004

*RES
1 *146:13 *740:A 1.01999
2 *146:12 *146:13 0.287007
3 *146:7 *146:12 1.01999
4 *146:8 *146:7 1.43498
5 *146:6 *546:Y 1.01999
6 *146:9 *146:8 0.143476
7 *146:6 *146:5 0.287007
8 *146:10 *146:9 0.717489
9 *146:10 *146:5 1.01999
10 *146:3 *673:SI 1.01999
11 *146:11 *146:10 3.5875001
12 *146:4 *146:3 0.430483
13 *146:4 *146:11 1.01999
*END

*D_NET *147 0.00318466

*CONN
*I *805:A I *C 53.505 74.415 *L 0.00301 *D INVX2M
*I *659:C I *C 58.015 71.135 *L 0.00297 *D NAND3BX2M
*I *652:C I *C 59.655 77.285 *L 0.00824 *D NAND4X6M
*I *637:SE I *C 55.145 77.285 *L 0.00231 *D SDFFRQX2M
*I *547:Y O *C 51.865 74.825 *L 0 *D BUFX5M

*CAP
1 *805:A 5.60325e-05
2 *659:C 5.60325e-05
3 *652:C 5.60325e-05
4 *637:SE 5.60325e-05
5 *547:Y 5.60325e-05
6 *147:5 0.000179209
7 *147:6 0.000297981
8 *147:7 0.000414013
9 *147:8 0.000421401367
10 *147:9 0.000159828
11 *147:10 0.00015244
12 *147:11 0.00012924
13 *147:12 9.14499e-05
14 *147:13 0.000103912
15 *147:14 0.000281552
16 *147:15 0.000171602
17 *147:16 0.000150119
18 *147:17 0.000260068
19 *147:20 4.58536e-05
20 *147:21 4.58536e-05

*RES
1 *147:12 *805:A 1.02
2 *147:10 *659:C 1.02
3 *147:13 *547:Y 1.02
4 *147:12 *147:11 0.430493
5 *147:10 *147:9 0.717502
6 *147:13 *147:6 0.287009
7 *147:6 *147:11 0.287009
8 *147:8 *147:9 0.143504
9 *147:21 *652:C 1.02
10 *147:19 *147:21 0.20428
11 *147:6 *147:5 0.573998
12 *147:8 *147:7 1.29149997
13 *147:16 *147:21 1.02
14 *147:15 *147:5 1.02
15 *147:17 *147:7 1.02
16 *147:17 *147:16 0.717502
17 *147:15 *147:14 0.861007
18 *147:14 *147:17 0.861007
19 *147:20 *637:SE 1.02
20 *147:20 *147:14 1.02
21 *147:18 *147:20 0.0349991
*END

*D_NET *148 0.00398425

*CONN
*I *659:AN I *C 57.195 71.545 *L 0.00159 *D NAND3BX2M
*I *652:D I *C 58.425 77.285 *L 0.00832 *D NAND4X6M
*I *622:A0N I *C 61.295 79.335 *L 0.00107 *D OAI2BB1X1M
*I *548:Y O *C 59.245 62.525 *L 0 *D BUFX4M

*CAP
1 *659:AN 5.60274e-05
2 *652:D 5.60274e-05
3 *622:A0N 5.60274e-05
4 *548:Y 2.51504e-05
5 *148:4 0.000336825
6 *148:5 0.000261505
7 *148:6 9.79012e-05
8 *148:7 0.00061023
9 *148:8 0.00061023
10 *148:9 0.000145399
11 *148:10 0.000145399
12 *148:11 6.64097e-05
13 *148:12 6.64097e-05
14 *148:13 3.93598e-05
15 *148:14 0.000198345
16 *148:15 0.000417081
17 *148:16 0.000417081
18 *148:17 6.3877e-05
19 *148:11 *343:11 1.903e-05
20 *148:12 *343:12 1.903e-05
21 *148:13 *343:5 2.04e-05
22 *148:14 *343:6 2.04e-05
23 *148:15 *343:13 5.989e-05
24 *148:16 *343:9 5.989e-05
25 *148:15 *343:9 5.815e-05
26 *148:16 *343:10 5.8149999e-05

*RES
1 *148:13 *622:A0N 1.02002
2 *148:14 *148:13 0.143509
3 *148:4 *148:14 0.861009
4 *148:5 *652:D 1.02002
5 *148:5 *148:4 0.573991
6 *548:Y *148:17 0.274099
7 *148:6 *148:5 0.287017
8 *148:8 *148:17 1.02002
9 *148:11 *148:6 1.02002
10 *148:8 *148:7 2.86999989
11 *148:12 *148:11 0.430482
12 *148:9 *148:7 1.02002
13 *148:15 *148:12 1.02002
14 *148:10 *148:9 0.861009
15 *148:16 *148:15 1.72202
16 *148:16 *148:10 1.02002
17 *659:AN *148:16 1.02002
*END

*D_NET *149 0.00187385

*CONN
*I *748:B I *C 53.915 63.345 *L 0.00302 *D NAND3BX2M
*I *744:B I *C 55.965 62.935 *L 0.00607 *D NOR2X4M
*I *662:B1 I *C 52.685 65.805 *L 0.00167 *D AO22X2M
*I *549:Y O *C 60.475 62.525 *L 0 *D BUFX4M

*CAP
1 *748:B 5.60281e-05
2 *744:B 5.60281e-05
3 *662:B1 5.60281e-05
4 *549:Y 5.60281e-05
5 *149:4 7.45943e-05
6 *149:5 0.000142741
7 *149:6 4.66222e-05
8 *149:7 4.66222e-05
9 *149:8 0.000174971
10 *149:9 7.41615e-05
11 *149:10 0.00032434
12 *149:11 0.00042336
13 *149:12 0.000113277
14 *149:15 0.000183201
15 *149:16 4.5847e-05

*RES
1 *149:4 *662:B1 1.01999
2 *149:5 *149:4 0.287009
3 *149:5 *149:15 0.430489
4 *149:8 *748:B 1.01999
5 *149:8 *149:15 0.573993
6 *149:9 *149:8 0.287009
7 *149:14 *149:16 0.204273
8 *149:16 *549:Y 1.01999
9 *149:12 *149:9 1.01999
10 *149:10 *149:16 1.01999
11 *149:6 *744:B 1.01999
12 *149:12 *149:11 0.717498
13 *149:11 *149:10 1.57850003
14 *149:7 *149:6 0.143504
15 *149:7 *149:11 1.01999
16 *149:13 *149:7 0.0675371
*END

*D_NET *150 0.00491125

*CONN
*I *804:A I *C 27.265 77.285 *L 0.0114 *D INVX8M
*I *789:A I *C 35.465 77.285 *L 0.00214 *D CLKAND2X4M
*I *775:A0 I *C 37.515 71.545 *L 0.00187 *D AO22X2M
*I *774:B0 I *C 33.415 71.545 *L 0.00173 *D AO22X2M
*I *773:B0 I *C 30.545 74.415 *L 0.00173 *D AO22X2M
*I *550:Y O *C 37.515 82.205 *L 0 *D BUFX8M

*CAP
1 *804:A 5.60336e-05
2 *789:A 5.60336e-05
3 *775:A0 5.60336e-05
4 *774:B0 5.60336e-05
5 *773:B0 5.60336e-05
6 *550:Y 5.60336e-05
7 *150:6 0.000134543
8 *150:7 0.000127112
9 *150:8 0.000423076
10 *150:9 0.000482608047
11 *150:10 7.45912e-05
12 *150:11 7.45912e-05
13 *150:12 7.50257e-05
14 *150:13 0.000257781
15 *150:14 0.000257781
16 *150:15 0.000241588
17 *150:16 0.000241588
18 *150:17 0.000146333
19 *150:18 0.000279793
20 *150:19 0.000426847
21 *150:20 0.000240372
22 *150:23 4.58491e-05
23 *150:24 0.000334199
24 *150:25 4.58491e-05
25 *150:26 6.60489e-05
26 *150:27 7.34793e-05
27 *150:28 0.000266721
28 *150:29 0.000259291

*RES
1 *150:11 *775:A0 1.01999
2 *150:11 *150:10 0.287009
3 *150:29 *550:Y 1.01999
4 *150:13 *150:10 1.01999
5 *150:28 *150:29 1.435
6 *150:14 *150:13 1.29149
7 *150:7 *774:B0 1.01999
8 *150:27 *150:28 0.143504
9 *150:12 *150:14 1.01999
10 *150:7 *150:6 0.430489
11 *150:26 *150:27 0.287009
12 *150:12 *150:9 0.143504
13 *150:6 *150:9 0.143504
14 *150:25 *789:A 1.01999
15 *150:22 *150:25 0.204273
16 *150:17 *150:26 1.01999
17 *150:16 *773:B0 1.01999
18 *150:9 *150:8 1.57850003
19 *150:18 *150:25 1.01999
20 *150:18 *150:17 0.573993
21 *150:16 *150:15 1.00451
22 *150:24 *150:8 1.01999
23 *150:24 *150:18 0.573993
24 *150:19 *150:15 1.01999
25 *150:19 *150:24 1.14801
26 *150:20 *150:19 1.14801
27 *150:23 *804:A 1.01999
28 *150:23 *150:20 1.01999
29 *150:21 *150:23 0.204273
*END

*D_NET *151 0.00223513

*CONN
*I *789:B I *C 36.285 77.285 *L 0.00215 *D CLKAND2X4M
*I *775:B1 I *C 36.285 71.545 *L 0.00167 *D AO22X2M
*I *717:B I *C 34.235 74.415 *L 0.00291 *D NAND2BX2M
*I *551:Y O *C 35.875 68.265 *L 0 *D BUFX4M

*CAP
1 *789:B 5.60266e-05
2 *775:B1 5.60266e-05
3 *717:B 5.60266e-05
4 *551:Y 2.51513e-05
5 *151:4 0.000222329
6 *151:5 9.34593e-05
7 *151:6 0.000103639
8 *151:7 0.000103639
9 *151:8 0.000182439
10 *151:9 0.000234359
11 *151:10 0.000333481
12 *151:11 0.00040163
13 *151:12 6.38772e-05
14 *151:13 0.000111379
15 *151:14 9.95388e-05
16 *151:15 9.21111e-05

*RES
1 *151:15 *789:B 1.02
2 *151:14 *151:15 0.573998
3 *151:6 *151:14 0.143504
4 *151:7 *151:6 0.573998
5 *151:7 *151:8 0.143504
6 *151:12 *551:Y 0.274121
7 *151:9 *775:B1 1.02
8 *151:9 *151:8 0.861007
9 *151:5 *151:12 1.02
10 *151:13 *151:9 0.287009
11 *151:10 *717:B 1.02
12 *151:5 *151:4 0.573998
13 *151:4 *151:13 0.287009
14 *151:11 *151:10 1.29149997
15 *151:11 *151:4 0.430493
*END

*D_NET *152 0.0059635

*CONN
*I *757:B I *C 45.715 71.545 *L 0.00214 *D CLKXOR2X2M
*I *753:C I *C 44.485 68.675 *L 0.00292 *D NAND3X2M
*I *740:S1 I *C 31.775 78.105 *L 0.00499 *D MX3X2M
*I *739:S1 I *C 30.955 65.805 *L 0.00368 *D MX3X1M
*I *552:Y O *C 44.075 74.005 *L 0 *D CLKBUFX6M

*CAP
1 *757:B 5.60343e-05
2 *753:C 5.60343e-05
3 *740:S1 2.65517e-05
4 *739:S1 5.60343e-05
5 *552:Y 5.60343e-05
6 *152:5 0.000473101094
7 *152:6 0.000473101094
8 *152:7 0.000154921
9 *152:8 0.000147493
10 *152:9 0.000128752
11 *152:10 0.000166544
12 *152:11 0.000142591
13 *152:12 0.000137184
14 *152:13 0.000438673
15 *152:14 0.000346825
16 *152:15 0.000239139
17 *152:16 0.000170991
18 *152:17 0.000246264
19 *152:18 0.000246264
20 *152:19 0.000420568
21 *152:20 0.000420568
22 *152:21 0.000128528
23 *152:22 0.000121071
24 *152:23 5.8691e-05
25 *152:24 6.04019e-05
26 *152:25 0.000376936
27 *152:26 0.000369479
28 *152:5 *298:4 9.491e-05
29 *152:6 *298:5 9.491e-05
30 *152:7 *298:4 2.746e-05
31 *152:8 *298:5 2.74600004e-05

*RES
1 *152:16 *757:B 1.02001
2 *152:14 *753:C 1.02001
3 *152:16 *152:15 0.717489
4 *152:14 *152:13 1.72201
5 *152:13 *152:15 0.430493
6 *152:13 *152:12 0.143498
7 *152:12 *552:Y 1.02001
8 *152:12 *152:11 0.573991
9 *152:10 *152:11 0.286996
10 *152:10 *152:9 0.860987
11 *152:26 *152:9 1.02001
12 *152:25 *152:26 2.00901
13 *152:25 *152:19 0.143498
14 *152:20 *152:19 1.86551
15 *152:21 *152:20 0.143498
16 *152:23 *740:S1 0.274116
17 *152:22 *152:21 0.430493
18 *152:24 *152:23 1.02001
19 *152:24 *152:22 1.02001
20 *152:17 *152:24 0.143498
21 *152:18 *152:17 1.00448
22 *152:18 *152:5 0.143498
23 *152:6 *152:5 2.43950009
24 *152:7 *152:6 0.143498
25 *152:8 *152:7 0.860987
26 *739:S1 *152:8 1.02001
*END

*D_NET *153 0.00415512

*CONN
*I *822:B I *C 65.395 19.885 *L 0.00322 *D XNOR3X2M
*I *683:B I *C 62.935 25.625 *L 0.00636 *D NAND2X4M
*I *627:D I *C 65.805 16.195 *L 0.00103 *D SDFFRQX2M
*I *553:Y O *C 61.705 10.865 *L 0 *D BUFX4M

*CAP
1 *822:B 5.60251e-05
2 *683:B 5.60251e-05
3 *627:D 5.60251e-05
4 *553:Y 5.02858e-05
5 *153:4 0.0009333
6 *153:5 0.0009333
7 *153:7 8.24283e-05
8 *153:8 4.58568e-05
9 *153:9 0.000121193
10 *153:10 0.000250632
11 *153:11 0.000161068
12 *153:12 0.000153649
13 *153:13 0.000221693
14 *153:14 0.000143694
15 *153:15 0.000263235
16 *153:16 6.32169e-05
17 *153:14 *77:20 2.229e-05
18 *153:10 *77:21 2.229e-05
19 *153:10 *77:20 2.229e-05
20 *153:9 *77:21 2.229e-05
21 *153:16 *77:22 4.08e-05
22 *153:15 *77:23 4.08e-05
23 *153:15 *77:22 0.00014081
24 *153:13 *77:23 0.00014081
25 *153:12 *77:24 5.555e-05
26 *153:11 *77:22 5.55499828e-05

*RES
1 *153:12 *822:B 1.02001
2 *153:11 *153:12 1.00452
3 *153:11 *153:16 0.143535
4 *153:15 *627:D 1.02001
5 *153:15 *153:16 0.286996
6 *153:4 *683:B 1.02001
7 *153:13 *153:15 1.57851
8 *153:5 *153:4 4.87900019
9 *153:14 *153:13 1.02001
10 *153:10 *153:5 1.02001
11 *153:10 *153:14 1.00452
12 *153:9 *153:10 0.717526
13 *153:7 *553:Y 0.548232
14 *153:8 *153:9 1.02001
15 *153:8 *153:7 1.02001
16 *153:6 *153:8 0.204284
*END

*D_NET *154 0.00393802

*CONN
*I *732:B I *C 71.545 36.695 *L 0.00323 *D XNOR3X1M
*I *695:B0 I *C 67.445 34.645 *L 0.00251 *D OAI2BB1X2M
*I *633:D I *C 69.495 43.665 *L 0.00103 *D SDFFRQX2M
*I *554:Y O *C 78.105 33.825 *L 0 *D BUFX4M

*CAP
1 *732:B 5.60249e-05
2 *695:B0 5.60249e-05
3 *633:D 5.60249e-05
4 *554:Y 5.60249e-05
5 *154:4 0.00010782
6 *154:5 0.00010782
7 *154:6 0.000108572
8 *154:7 0.000108572
9 *154:8 0.00027999
10 *154:9 0.000187587
11 *154:10 0.000376641
12 *154:11 0.000384099
13 *154:12 0.000108113
14 *154:13 7.03169e-05
15 *154:14 7.77502e-05
16 *154:15 0.000108113
17 *154:16 6.89109e-05
18 *154:17 0.00040061
19 *154:18 0.000324266
20 *154:19 8.81788e-05
21 *154:20 5.03888e-05
22 *154:21 0.000114116
23 *154:21 *159:12 3.21e-05
24 *154:8 *159:10 3.21e-05
25 *154:8 *159:10 5.145e-05
26 *154:9 *159:11 5.145e-05
27 *154:18 *159:6 0.00011737
28 *154:17 *159:7 0.000117370001
29 *154:10 *45:2 0.0001201
30 *154:11 *45:3 0.000120100002

*RES
1 *154:13 *633:D 1.02
2 *154:12 *154:13 0.286987
3 *154:12 *154:15 0.286987
4 *154:7 *554:Y 1.02
5 *154:20 *732:B 1.02
6 *154:14 *154:15 0.286987
7 *154:7 *154:6 0.574002
8 *154:19 *154:20 0.143493
9 *154:14 *154:18 0.143493
10 *154:10 *154:6 1.02
11 *154:17 *154:19 0.286987
12 *154:17 *154:18 1.86549997
13 *154:11 *154:10 1.86549997
14 *154:16 *154:17 0.286987
15 *154:11 *154:21 0.143493
16 *154:8 *154:16 1.02
17 *154:8 *154:21 0.717496
18 *154:9 *154:8 1.148
19 *154:4 *154:9 1.02
20 *154:5 *154:4 0.430509
21 *695:B0 *154:5 1.02
*END

*D_NET *155 0.00240055

*CONN
*I *783:A I *C 69.495 17.015 *L 0.00363 *D CLKXOR2X2M
*I *656:B I *C 69.085 19.885 *L 0.00294 *D NAND2X2M
*I *634:D I *C 69.495 14.965 *L 0.00103 *D SDFFRQX2M
*I *555:Y O *C 75.645 22.345 *L 0 *D BUFX4M

*CAP
1 *783:A 5.60348e-05
2 *656:B 5.60348e-05
3 *634:D 5.60348e-05
4 *555:Y 5.60348e-05
5 *155:4 0.00020465
6 *155:5 0.00032367
7 *155:6 4.82613e-05
8 *155:7 0.000100069
9 *155:8 0.000217922
10 *155:9 0.000217922
11 *155:10 7.34812e-05
12 *155:11 0.00042488
13 *155:12 0.000140693
14 *155:13 0.00042488

*RES
1 *155:8 *555:Y 1.01999
2 *155:9 *155:8 0.7175
3 *155:13 *155:9 1.01999
4 *155:12 *634:D 1.01999
5 *155:11 *155:13 2.296
6 *155:5 *783:A 1.01999
7 *155:12 *155:5 0.7175
8 *155:6 *155:11 1.01999
9 *155:5 *155:4 0.7175
10 *155:7 *656:B 1.01999
11 *155:7 *155:6 0.1435
12 *155:10 *155:4 0.1435
13 *155:10 *155:7 0.287
*END

*D_NET *156 0.00402241

*CONN
*I *784:A I *C 65.395 37.105 *L 0.00363 *D CLKXOR2X2M
*I *667:B0 I *C 62.935 34.645 *L 0.00251 *D OAI2BB1X2M
*I *635:D I *C 66.625 39.155 *L 0.00103 *D SDFFRQX2M
*I *556:Y O *C 80.155 33.825 *L 0 *D BUFX4M

*CAP
1 *784:A 5.60346e-05
2 *667:B0 5.60346e-05
3 *635:D 5.60346e-05
4 *556:Y 5.60346e-05
5 *156:4 7.35977e-05
6 *156:5 0.000148856
7 *156:6 0.000154585
8 *156:7 8.64423e-05
9 *156:8 0.000286739
10 *156:9 0.000286739
11 *156:10 0.000212742
12 *156:11 0.000212742
13 *156:12 0.00081805
14 *156:13 0.00081805
15 *156:14 0.000140517
16 *156:15 0.000140517
17 *156:12 *159:18 7.118e-05
18 *156:13 *159:14 7.118e-05
19 *156:12 *159:12 1.808e-05
20 *156:13 *159:10 1.808e-05
21 *156:14 *159:10 0.0001201
22 *156:15 *159:11 0.000120099998

*RES
1 *156:9 *556:Y 1.01999
2 *156:9 *156:8 1.57848
3 *156:11 *667:B0 1.01999
4 *156:12 *156:8 1.01999
5 *156:11 *156:10 0.861026
6 *156:4 *635:D 1.01999
7 *156:13 *156:12 4.73549986
8 *156:15 *156:10 1.01999
9 *156:5 *156:4 0.287009
10 *156:5 *156:13 1.01999
11 *156:15 *156:14 0.861026
12 *156:6 *156:5 0.430513
13 *156:7 *784:A 1.01999
14 *156:7 *156:14 1.01999
15 *156:7 *156:6 0.430513
16 *156:16 *156:7 0.204273
*END

*D_NET *157 0.00322205

*CONN
*I *783:B I *C 72.365 17.015 *L 0.00214 *D CLKXOR2X2M
*I *691:B0 I *C 66.625 25.215 *L 0.00251 *D OAI2BB1X2M
*I *628:D I *C 73.595 16.195 *L 0.00103 *D SDFFRQX2M
*I *557:Y O *C 77.695 22.345 *L 0 *D BUFX4M

*CAP
1 *783:B 5.60265e-05
2 *691:B0 5.60265e-05
3 *628:D 5.60265e-05
4 *557:Y 5.60265e-05
5 *157:4 0.000279338
6 *157:5 0.000286772
7 *157:6 9.1399e-05
8 *157:7 9.1399e-05
9 *157:8 0.000187577
10 *157:9 0.00032629
11 *157:10 0.000187577
12 *157:11 0.00065931
13 *157:12 0.000134206
14 *157:13 0.000168583
15 *157:14 0.000124196
16 *157:15 0.000114015
17 *157:16 0.000347276

*RES
1 *157:15 *628:D 1.02001
2 *157:12 *157:15 0.430487
3 *157:13 *783:B 1.02001
4 *157:12 *157:13 0.286991
5 *157:13 *157:14 0.861004
6 *157:7 *557:Y 1.02001
7 *157:5 *157:14 0.143496
8 *157:7 *157:6 0.430487
9 *157:5 *157:4 1.43499
10 *157:16 *157:6 1.02001
11 *157:11 *157:4 1.02001
12 *157:11 *157:16 2.00900006
13 *157:10 *691:B0 1.02001
14 *157:9 *157:11 1.8655
15 *157:8 *157:10 0.574013
16 *157:8 *157:9 1.02001
*END

*D_NET *158 0.00372391

*CONN
*I *784:B I *C 62.525 37.105 *L 0.00214 *D CLKXOR2X2M
*I *687:B0 I *C 47.355 34.645 *L 0.00251 *D OAI2BB1X2M
*I *631:D I *C 55.145 39.155 *L 0.00103 *D SDFFRQX2M
*I *558:Y O *C 57.605 33.825 *L 0 *D BUFX4M

*CAP
1 *784:B 5.6035e-05
2 *687:B0 5.6035e-05
3 *631:D 5.6035e-05
4 *558:Y 0.000111678
5 *158:4 0.000150441
6 *158:5 0.000116422
7 *158:6 0.000154138
8 *158:7 0.000154138
9 *158:8 0.00049345
10 *158:9 0.00049345
11 *158:10 0.000395641
12 *158:11 0.000395641
13 *158:14 4.5855e-05
14 *158:15 0.000222559
15 *158:16 0.000184776
16 *158:17 0.000143815
17 *158:18 8.60479e-05
18 *158:10 *80:20 2.478e-05
19 *158:11 *80:22 2.478e-05
20 *158:8 *80:22 0.0001791
21 *158:9 *80:26 0.000179100004

*RES
1 *158:6 *784:B 1.01998
2 *158:7 *158:6 0.430487
3 *158:16 *631:D 1.01998
4 *158:10 *158:7 1.01998
5 *158:15 *158:16 1.00448
6 *158:11 *158:10 2.29599
7 *158:15 *158:18 0.287022
8 *158:4 *158:11 1.01998
9 *158:4 *158:18 0.143511
10 *158:17 *558:Y 1.09645
11 *158:13 *158:5 0.204254
12 *158:5 *158:4 0.430487
13 *158:5 *158:17 1.01998
14 *158:8 *158:5 1.01998
15 *158:9 *158:8 3.01349998
16 *158:14 *687:B0 1.01998
17 *158:14 *158:9 1.01998
18 *158:12 *158:14 0.204254
*END

*D_NET *159 0.00409959

*CONN
*I *732:A I *C 76.055 37.105 *L 0.003 *D XNOR3X1M
*I *665:B0 I *C 60.475 34.645 *L 0.00251 *D OAI2BB1X2M
*I *632:D I *C 70.315 39.155 *L 0.00103 *D SDFFRQX2M
*I *559:Y O *C 76.055 33.825 *L 0 *D BUFX4M

*CAP
1 *732:A 5.60323e-05
2 *665:B0 5.60323e-05
3 *632:D 5.60323e-05
4 *559:Y 5.60323e-05
5 *159:4 0.000108328
6 *159:5 0.000115756
7 *159:6 0.000149931
8 *159:7 0.000149931
9 *159:8 7.77542e-05
10 *159:9 7.03171e-05
11 *159:10 0.00059438
12 *159:11 0.000483159
13 *159:12 0.00016339
14 *159:14 0.000251756
15 *159:15 0.00028554
16 *159:16 0.000331061
17 *159:17 5.976e-05
18 *159:18 0.000213844
19 *159:18 *156:12 7.118e-05
20 *159:14 *156:13 7.118e-05
21 *159:12 *156:12 1.808e-05
22 *159:10 *156:13 1.808e-05
23 *159:10 *156:14 0.0001201
24 *159:11 *156:15 0.000120099998
25 *159:12 *154:21 3.21e-05
26 *159:10 *154:8 3.21e-05
27 *159:10 *154:8 5.145e-05
28 *159:11 *154:9 5.145e-05
29 *159:6 *154:18 0.00011737
30 *159:7 *154:17 0.000117370001

*RES
1 *159:9 *665:B0 1.02002
2 *159:9 *159:8 0.287011
3 *159:8 *159:5 0.14348
4 *159:6 *632:D 1.02002
5 *159:5 *159:4 0.430491
6 *159:7 *159:6 0.860982
7 *159:11 *159:4 1.02002
8 *159:10 *159:7 1.02002
9 *159:11 *159:10 3.30049992
10 *159:10 *159:12 0.717502
11 *159:12 *159:14 0.287011
12 *159:14 *159:18 1.29152
13 *159:15 *559:Y 1.02002
14 *159:17 *159:18 1.02002
15 *159:16 *732:A 1.02002
16 *159:15 *159:16 1.14799
17 *159:16 *159:17 0.14348
18 *159:13 *159:16 0.0675349
*END

*D_NET *160 0.00282117

*CONN
*I *688:B0 I *C 46.125 22.755 *L 0.00856 *D OAI21X6M
*I *630:D I *C 58.015 14.965 *L 0.00103 *D SDFFRQX2M
*I *560:Y O *C 50.225 16.605 *L 0 *D BUFX4M

*CAP
1 *688:B0 5.60248e-05
2 *630:D 5.60248e-05
3 *560:Y 2.51475e-05
4 *160:3 0.000182305
5 *160:4 0.000229221
6 *160:5 6.11614e-05
7 *160:6 0.00047412
8 *160:7 0.00047412
9 *160:8 0.000125209
10 *160:9 0.000132668
11 *160:10 9.47155e-05
12 *160:11 9.47155e-05
13 *160:12 0.000131084
14 *160:13 0.000138543
15 *160:14 6.38816e-05
16 *160:15 0.000124471
17 *160:16 0.000124471
18 *160:6 *58:8 5.299e-05
19 *160:7 *58:6 5.299e-05
20 *160:3 *58:2 4.745e-05
21 *160:4 *58:3 4.745e-05
22 *160:4 *58:2 1.62e-05
23 *160:5 *58:3 1.62000001e-05

*RES
1 *160:15 *630:D 1.02002
2 *160:15 *160:16 0.573991
3 *160:6 *160:16 1.02002
4 *160:7 *160:6 2.86999989
5 *160:5 *160:7 1.02002
6 *160:14 *560:Y 0.274099
7 *160:5 *160:4 0.287017
8 *160:4 *160:14 1.02002
9 *160:4 *160:3 1.29149
10 *160:8 *160:3 1.02002
11 *160:9 *160:8 0.573991
12 *160:9 *160:13 0.143509
13 *160:10 *688:B0 1.02002
14 *160:12 *160:13 0.7175
15 *160:11 *160:10 0.430482
16 *160:11 *160:12 1.02002
*END

*D_NET *161 0.00268256

*CONN
*I *798:B I *C 44.485 54.325 *L 0.00291 *D NAND2BX2M
*I *792:B I *C 40.795 54.325 *L 0.00607 *D NOR2X4M
*I *788:A I *C 43.665 51.865 *L 0.00584 *D NOR2X4M
*I *594:SI I *C 42.845 48.585 *L 0.000896 *D SDFFRQX2M
*I *561:Y O *C 41.205 51.045 *L 0 *D CLKBUFX6M

*CAP
1 *798:B 5.60294e-05
2 *792:B 5.60294e-05
3 *788:A 5.60294e-05
4 *594:SI 5.60294e-05
5 *561:Y 5.60294e-05
6 *161:5 0.00051724
7 *161:6 0.000505172
8 *161:7 7.68974e-05
9 *161:8 0.00014505
10 *161:9 0.000108113
11 *161:10 0.000100899
12 *161:11 0.000199406
13 *161:12 0.000144647
14 *161:13 0.000170061
15 *161:14 0.000115232
16 *161:15 0.000178743
17 *161:16 0.000140946

*RES
1 *161:16 *798:B 1.02
2 *161:15 *161:16 0.430504
3 *161:14 *161:15 0.286996
4 *161:13 *788:A 1.02
5 *161:13 *161:14 0.430504
6 *161:10 *594:SI 1.02
7 *161:12 *161:13 0.573991
8 *161:10 *161:11 0.573991
9 *161:11 *161:12 0.286996
10 *161:9 *161:11 0.286996
11 *161:9 *161:6 0.286996
12 *161:6 *561:Y 1.02
13 *161:6 *161:5 1.43499994
14 *161:8 *161:5 0.430504
15 *161:7 *161:8 0.286996
16 *792:B *161:7 1.02
*END

*D_NET *162 0.0053264

*CONN
*I *826:A1 I *C 37.925 62.525 *L 0.00611 *D OAI21BX4M
*I *801:A I *C 44.075 62.935 *L 0.00576 *D INVX4M
*I *792:A I *C 39.975 53.915 *L 0.00584 *D NOR2X4M
*I *770:B I *C 36.695 59.655 *L 0.00404 *D AND2X6M
*I *596:SI I *C 44.895 57.195 *L 0.000896 *D SDFFRQX2M
*I *593:A1 I *C 35.875 51.455 *L 0.00197 *D AO22X2M
*I *562:Y O *C 41.205 59.245 *L 0 *D BUFX8M

*CAP
1 *826:A1 5.60296e-05
2 *801:A 5.60296e-05
3 *792:A 5.60296e-05
4 *770:B 5.60296e-05
5 *596:SI 5.60296e-05
6 *593:A1 5.60296e-05
7 *562:Y 0.000164082
8 *162:7 0.000150477
9 *162:8 0.000157911
10 *162:9 0.00064194
11 *162:10 0.000563763
12 *162:11 0.000133403
13 *162:12 0.000175612
14 *162:13 9.42315e-05
15 *162:14 6.49433e-05
16 *162:15 0.000302148
17 *162:16 0.000264358
18 *162:17 0.000119837
19 *162:18 0.000217193
20 *162:19 0.000140191
21 *162:20 0.000398672
22 *162:21 0.000398672
23 *162:22 0.000161976
24 *162:23 0.000161976
25 *162:24 8.24869e-05
26 *162:25 4.66162e-05
27 *162:26 5.40509e-05
28 *162:27 0.000153993
29 *162:28 0.000153993
30 *162:29 5.97616e-05
31 *162:30 0.000127908

*RES
1 *162:16 *596:SI 1.01998
2 *162:25 *770:B 1.01998
3 *162:16 *162:15 1.435
4 *162:17 *801:A 1.01998
5 *162:25 *162:26 0.143504
6 *162:18 *162:15 0.287009
7 *162:18 *162:17 0.574018
8 *162:26 *162:8 0.143504
9 *162:24 *162:18 0.287009
10 *162:8 *162:7 0.574018
11 *162:19 *162:24 1.01998
12 *162:27 *162:7 1.01998
13 *562:Y *162:19 1.09644
14 *162:27 *162:28 0.717482
15 *162:11 *826:A1 1.01998
16 *162:12 *162:28 1.01998
17 *162:12 *162:11 0.430513
18 *162:29 *562:Y 1.01998
19 *162:13 *162:12 0.143504
20 *162:29 *162:30 0.143504
21 *162:13 *162:9 0.287009
22 *162:9 *162:30 0.430513
23 *162:10 *792:A 1.01998
24 *162:10 *162:9 2.58299994
25 *162:14 *162:10 0.287009
26 *162:20 *162:14 1.01998
27 *162:21 *162:20 1.435
28 *162:22 *162:21 1.01998
29 *162:23 *162:22 0.574018
30 *593:A1 *162:23 1.01998
*END

*D_NET *163 0.0038346

*CONN
*I *798:AN I *C 43.665 54.325 *L 0.00159 *D NAND2BX2M
*I *788:B I *C 44.485 51.455 *L 0.00607 *D NOR2X4M
*I *769:B I *C 50.225 54.325 *L 0.00291 *D NAND2BX2M
*I *719:C I *C 45.715 54.325 *L 0.00292 *D NAND3X2M
*I *595:SI I *C 48.175 48.585 *L 0.000896 *D SDFFRQX2M
*I *593:B1 I *C 38.335 51.455 *L 0.00167 *D AO22X2M
*I *563:Y O *C 49.815 52.275 *L 0 *D BUFX8M

*CAP
1 *798:AN 5.60315e-05
2 *788:B 5.60315e-05
3 *769:B 5.60315e-05
4 *719:C 5.60315e-05
5 *595:SI 5.60315e-05
6 *593:B1 5.60315e-05
7 *563:Y 0.000106315
8 *163:7 0.000131804
9 *163:8 8.1024e-05
10 *163:9 0.000102702
11 *163:10 9.5268e-05
12 *163:11 0.000126889
13 *163:12 0.000126889
14 *163:13 7.2453e-05
15 *163:14 0.00034975
16 *163:15 0.00028154
17 *163:16 0.000169471
18 *163:17 0.000237676
19 *163:18 4.45733e-05
20 *163:19 3.71391e-05
21 *163:23 4.58488e-05
22 *163:24 0.000116066
23 *163:25 4.58488e-05
24 *163:26 0.000116066
25 *163:27 9.93293e-05
26 *163:28 0.00012215
27 *163:29 8.24275e-05
28 *163:30 4.44879e-05
29 *163:31 0.000119129
30 *163:32 0.000126558
31 *163:33 0.00010259
32 *163:34 9.51613e-05
33 *163:16 *122:14 3.425e-05
34 *163:17 *122:10 3.425e-05
35 *163:17 *122:14 2.249e-05
36 *163:14 *122:10 2.249e-05
37 *163:14 *122:10 7.425e-05
38 *163:15 *122:11 7.425e-05
39 *163:18 *122:17 1.953e-05
40 *163:19 *122:15 1.953e-05
41 *163:9 *122:13 5.911e-05
42 *163:10 *122:12 5.9110008e-05

*RES
1 *163:34 *769:B 1.01999
2 *163:33 *163:34 0.573991
3 *163:12 *719:C 1.01999
4 *163:18 *163:33 0.143491
5 *163:12 *163:11 0.287009
6 *163:19 *163:18 0.143491
7 *163:26 *163:11 1.01999
8 *563:Y *163:19 1.01999
9 *163:24 *163:26 0.717509
10 *163:31 *595:SI 1.01999
11 *163:13 *163:24 1.01999
12 *163:31 *163:32 0.573991
13 *163:29 *563:Y 0.548241
14 *163:7 *798:AN 1.01999
15 *163:7 *163:13 0.287009
16 *163:27 *163:32 0.143491
17 *163:30 *163:29 1.01999
18 *163:8 *163:7 0.287009
19 *163:27 *163:28 0.4305
20 *163:22 *163:28 0.0675284
21 *163:28 *163:30 0.143491
22 *163:9 *163:8 0.143491
23 *163:25 *788:B 1.01999
24 *163:21 *163:25 0.204267
25 *163:16 *163:28 1.01999
26 *163:10 *163:9 0.717509
27 *163:17 *163:25 1.01999
28 *163:17 *163:16 1.14801
29 *163:14 *163:10 1.01999
30 *163:14 *163:17 0.4305
31 *163:15 *163:14 1.722
32 *163:23 *593:B1 1.01999
33 *163:23 *163:15 1.01999
34 *163:20 *163:23 0.204267
*END

*D_NET *164 0.00280295

*CONN
*I *782:A I *C 28.085 45.715 *L 0.00313 *D NAND3X2M
*I *780:B I *C 21.935 45.715 *L 0.00604 *D NAND3BX4M
*I *697:B I *C 31.775 45.715 *L 0.00607 *D NOR2X4M
*I *653:A1 I *C 30.135 48.175 *L 0.00101 *D AO21XLM
*I *610:B1 I *C 25.625 48.585 *L 0.00167 *D AO22X2M
*I *564:Y O *C 32.595 47.765 *L 0 *D BUFX8M

*CAP
1 *782:A 5.60296e-05
2 *780:B 5.60296e-05
3 *697:B 5.60296e-05
4 *653:A1 7.54412e-05
5 *610:B1 5.60296e-05
6 *564:Y 0.000131471
7 *164:6 0.000133253
8 *164:7 0.000133253
9 *164:8 9.40178e-05
10 *164:9 0.000160968
11 *164:10 8.11865e-05
12 *164:11 0.000132
13 *164:12 0.000132
14 *164:13 0.000275108
15 *164:14 0.00038538
16 *164:15 0.000344099
17 *164:16 0.000233827
18 *164:17 0.000133411
19 *164:18 0.000133411

*RES
1 *653:A1 *564:Y 0.822342
2 *164:10 *697:B 1.02
3 *164:8 *564:Y 1.02
4 *164:7 *782:A 1.02
5 *164:10 *164:9 0.430493
6 *164:9 *164:8 0.430493
7 *164:11 *610:B1 1.02
8 *164:7 *164:6 0.430493
9 *164:13 *164:9 1.02
10 *164:12 *164:11 0.573998
11 *164:14 *164:6 1.02
12 *164:14 *164:13 1.29149997
13 *164:15 *164:12 1.02
14 *164:15 *164:14 0.861007
15 *164:16 *164:15 1.29149997
16 *164:18 *164:16 1.02
17 *164:17 *164:18 0.430493
18 *780:B *164:17 1.02
*END

*D_NET *165 0.00226387

*CONN
*I *782:B I *C 27.675 46.125 *L 0.003 *D NAND3X2M
*I *780:C I *C 21.525 45.715 *L 0.00673 *D NAND3BX4M
*I *694:B I *C 26.445 48.585 *L 0.00607 *D NOR2X4M
*I *610:A1 I *C 23.165 48.585 *L 0.00197 *D AO22X2M
*I *565:Y O *C 20.295 48.995 *L 0 *D CLKBUFX6M

*CAP
1 *782:B 5.60306e-05
2 *780:C 5.60306e-05
3 *694:B 5.60306e-05
4 *610:A1 5.60306e-05
5 *565:Y 2.51506e-05
6 *165:5 0.00017898
7 *165:6 0.00017898
8 *165:7 7.4591e-05
9 *165:8 0.000173098
10 *165:9 0.000273528
11 *165:10 0.000219809
12 *165:11 0.0003223
13 *165:12 0.000165608
14 *165:14 5.72896e-05
15 *165:15 8.11123e-05
16 *165:16 4.58504e-05
17 *165:17 8.77319e-05
18 *165:18 0.000105889
19 *165:19 4.98192e-05

*RES
1 *565:Y *165:14 0.274107
2 *165:12 *780:C 1.02
3 *165:15 *165:14 1.02
4 *165:6 *782:B 1.02
5 *165:12 *165:11 0.7175
6 *165:11 *165:15 0.4305
7 *165:6 *165:5 0.574
8 *165:11 *165:8 0.574
9 *165:19 *165:5 1.02
10 *165:7 *610:A1 1.02
11 *165:8 *165:7 0.287
12 *165:17 *165:19 0.1435
13 *165:10 *165:7 1.02
14 *165:17 *165:18 0.287
15 *165:10 *165:9 1.148
16 *165:9 *165:18 0.287
17 *165:16 *694:B 1.02
18 *165:16 *165:9 1.02
19 *165:13 *165:16 0.0349991
*END

*D_NET *166 0.00346227

*CONN
*I *782:C I *C 26.855 45.715 *L 0.00292 *D NAND3X2M
*I *780:AN I *C 24.805 45.715 *L 0.00274 *D NAND3BX4M
*I *756:A0 I *C 20.705 46.125 *L 0.00111 *D AOI21BX2M
*I *608:A0N I *C 19.885 42.845 *L 0.0053 *D OAI2BB2X8M
*I *566:Y O *C 17.835 37.515 *L 0 *D BUFX4M

*CAP
1 *782:C 5.60267e-05
2 *780:AN 5.60267e-05
3 *756:A0 5.60267e-05
4 *608:A0N 5.60267e-05
5 *566:Y 5.60267e-05
6 *166:5 0.00022333
7 *166:6 0.0005654
8 *166:7 0.000104133
9 *166:8 0.000104133
10 *166:9 0.000236125
11 *166:10 0.000111855
12 *166:11 0.000111855
13 *166:12 0.000123036
14 *166:13 0.000358427
15 *166:14 0.000287553
16 *166:16 0.000255959
17 *166:17 0.000206386
18 *166:18 7.7509e-05
19 *166:19 4.58463e-05
20 *166:20 0.000287182
21 *166:21 8.33929e-05

*RES
1 *166:10 *782:C 1.01999
2 *166:18 *608:A0N 1.01999
3 *166:7 *780:AN 1.01999
4 *166:11 *166:10 0.287009
5 *166:9 *566:Y 1.01999
6 *166:17 *166:18 0.287009
7 *166:8 *166:7 0.287009
8 *166:12 *166:11 1.01999
9 *166:9 *166:6 1.57850003
10 *166:6 *166:17 0.717498
11 *166:13 *166:8 1.01999
12 *166:13 *166:12 0.717498
13 *166:6 *166:5 1.29149
14 *166:14 *166:13 1.29149
15 *166:16 *166:5 1.01999
16 *166:14 *166:21 0.287009
17 *166:16 *166:20 1.00451
18 *166:20 *166:21 0.143504
19 *166:19 *756:A0 1.01999
20 *166:19 *166:20 1.01999
21 *166:15 *166:19 0.204273
*END

*D_NET *167 0.00203925

*CONN
*I *790:B I *C 45.715 28.495 *L 0.00607 *D NOR2X4M
*I *737:B I *C 38.745 28.495 *L 0.00294 *D NAND2X2M
*I *729:AN I *C 39.975 31.365 *L 0.00159 *D NAND2BX2M
*I *591:B1 I *C 39.155 34.235 *L 0.00608 *D AOI2BB2X4M
*I *567:Y O *C 39.975 28.085 *L 0 *D CLKBUFX6M

*CAP
1 *790:B 5.60335e-05
2 *737:B 5.46167e-05
3 *729:AN 5.60335e-05
4 *591:B1 5.60335e-05
5 *567:Y 0.00011065
6 *167:5 0.000109257
7 *167:6 0.000147051
8 *167:7 0.00024489
9 *167:8 0.000222998
10 *167:9 4.6301e-05
11 *167:10 0.000105981
12 *167:12 0.00039178
13 *167:13 4.58467e-05
14 *167:14 0.00039178

*RES
1 *167:5 *591:B1 1.02001
2 *737:B *567:Y 0.548232
3 *167:6 *167:5 0.574013
4 *167:6 *167:10 0.286991
5 *167:9 *567:Y 1.02001
6 *167:7 *729:AN 1.02001
7 *167:7 *167:10 0.430487
8 *167:9 *167:8 0.143496
9 *167:8 *167:7 1.0045
10 *167:12 *167:8 1.02001
11 *167:12 *167:14 2.00900006
12 *167:13 *790:B 1.02001
13 *167:13 *167:14 1.02001
14 *167:11 *167:13 0.204284
*END

*D_NET *168 0.00453815

*CONN
*I *797:A I *C 36.285 19.885 *L 0.00581 *D NAND2X4M
*I *778:AN I *C 51.865 28.495 *L 0.00159 *D NAND2BX2M
*I *772:B I *C 50.225 28.495 *L 0.00294 *D NAND2X2M
*I *764:B I *C 49.815 28.495 *L 0.00294 *D NAND2X2M
*I *620:A0 I *C 37.515 23.165 *L 0.00909 *D OAI21X6M
*I *589:B1 I *C 39.565 19.885 *L 0.00109 *D AO22XLM
*I *568:Y O *C 49.815 19.065 *L 0 *D BUFX8M

*CAP
1 *797:A 5.60281e-05
2 *778:AN 5.60281e-05
3 *772:B 6.35496e-05
4 *764:B 2.48161e-05
5 *620:A0 5.60281e-05
6 *589:B1 5.60281e-05
7 *568:Y 5.60281e-05
8 *168:7 0.000199063
9 *168:8 0.000199063
10 *168:9 0.00041266
11 *168:10 0.000250613
12 *168:11 0.000173171
13 *168:12 0.00026413
14 *168:13 0.000266306
15 *168:14 0.00054648
16 *168:15 0.000301888
17 *168:16 0.000214664
18 *168:17 0.000214664
19 *168:18 0.000113907
20 *168:19 0.000121371
21 *168:22 4.58464e-05
22 *168:23 0.000136414
23 *168:24 0.000234761
24 *168:25 9.40194e-05
25 *168:26 0.000239481
26 *168:27 0.000141133

*RES
1 *168:27 *778:AN 1.02
2 *764:B *772:B 0.274121
3 *168:26 *168:27 0.430493
4 *168:25 *772:B 1.02
5 *168:9 *168:26 0.573998
6 *168:9 *168:25 0.430493
7 *168:10 *168:9 1.29149997
8 *168:10 *168:11 0.143504
9 *168:12 *168:11 0.573998
10 *168:24 *168:12 0.573998
11 *168:21 *168:23 0.20428
12 *168:23 *168:24 0.717502
13 *168:23 *568:Y 1.02
14 *168:18 *168:23 1.02
15 *168:19 *168:18 0.717502
16 *168:7 *620:A0 1.02
17 *168:19 *168:16 0.143504
18 *168:8 *797:A 1.02
19 *168:8 *168:7 1.148
20 *168:17 *168:16 1.29149997
21 *168:15 *168:8 1.02
22 *168:13 *168:17 0.143504
23 *168:15 *168:14 1.148
24 *168:14 *168:13 1.29149997
25 *168:22 *589:B1 1.02
26 *168:22 *168:14 1.02
27 *168:20 *168:22 0.20428
*END

*D_NET *169 0.00271672

*CONN
*I *797:B I *C 37.515 19.885 *L 0.00636 *D NAND2X4M
*I *728:C I *C 40.385 22.755 *L 0.00292 *D NAND3X2M
*I *663:B I *C 39.155 19.885 *L 0.00295 *D NOR2X2M
*I *589:A1 I *C 41.205 19.065 *L 0.00122 *D AO22XLM
*I *569:Y O *C 40.385 16.605 *L 0 *D BUFX4M

*CAP
1 *797:B 5.60291e-05
2 *728:C 7.96885e-05
3 *663:B 5.60291e-05
4 *589:A1 5.60291e-05
5 *569:Y 5.60291e-05
6 *169:5 0.000150811
7 *169:6 0.00024916
8 *169:7 0.000220758
9 *169:8 0.000124768
10 *169:9 0.000187631
11 *169:10 0.000172942
12 *169:11 0.000116341
13 *169:12 0.000304441367
14 *169:13 0.000202362
15 *169:14 7.19584e-05
16 *169:15 7.19584e-05
17 *169:16 9.79034e-05
18 *169:17 0.000111831
19 *169:18 8.12076e-05
20 *169:19 0.000143271
21 *169:20 0.000105559

*RES
1 *169:20 *589:A1 1.01999998
2 *169:8 *569:Y 1.01999998
3 *169:19 *169:20 0.286999
4 *169:17 *728:C 0.822338
5 *169:8 *169:7 0.573999
6 *169:7 *169:19 0.286999
7 *169:5 *169:17 1.01999998
8 *169:14 *663:B 1.01999998
9 *169:7 *169:18 0.286999
10 *169:6 *169:5 0.430499
11 *169:15 *169:14 0.286999
12 *169:11 *169:18 1.01999998
13 *169:9 *169:6 0.573999
14 *169:12 *169:15 1.01999998
15 *169:12 *169:11 0.430499
16 *169:10 *797:B 1.01999998
17 *169:10 *169:9 0.573999
18 *169:13 *169:12 0.573999
19 *169:16 *169:10 0.286999
20 *169:16 *169:13 1.01999998
*END

*D_NET *170 0.00563371

*CONN
*I *823:B1 I *C 33.415 17.425 *L 0.00176 *D AO2B2X2M
*I *790:A I *C 44.895 28.905 *L 0.00584 *D NOR2X4M
*I *786:B I *C 45.305 25.625 *L 0.00215 *D CLKAND2X4M
*I *767:B I *C 32.595 17.015 *L 0.00607 *D NOR2X4M
*I *570:Y O *C 33.005 12.095 *L 0 *D BUFX8M

*CAP
1 *823:B1 4.26588e-05
2 *790:A 5.60237e-05
3 *786:B 5.60237e-05
4 *767:B 7.47995e-05
5 *570:Y 5.60237e-05
6 *170:5 0.000259878
7 *170:6 0.000323154
8 *170:7 0.00068588
9 *170:8 0.00068588
10 *170:9 9.68092e-05
11 *170:10 0.000104198
12 *170:11 0.000131001
13 *170:12 0.000405039
14 *170:13 0.000266387
15 *170:14 0.000266387
16 *170:15 8.4899e-05
17 *170:16 0.000422936
18 *170:17 4.44904e-05
19 *170:18 5.18793e-05
20 *170:19 0.000291526
21 *170:20 0.000430398
22 *170:21 0.000291526
23 *170:22 0.000108845
24 *170:23 0.000101383
25 *170:24 0.000295671

*RES
1 *170:9 *790:A 1.02002
2 *170:10 *170:9 0.573991
3 *170:10 *170:11 0.143509
4 *170:12 *786:B 1.02002
5 *170:12 *170:11 0.573991
6 *170:24 *170:12 1.435
7 *170:13 *170:24 1.02002
8 *170:14 *170:13 1.29149
9 *170:7 *170:14 1.02002
10 *170:8 *170:7 2.86999989
11 *170:23 *170:8 1.02002
12 *170:22 *170:23 0.430482
13 *170:21 *170:22 0.143509
14 *170:19 *170:21 1.29149
15 *170:19 *170:20 0.143509
16 *767:B *823:B1 0.548241
17 *170:16 *170:20 1.435
18 *170:5 *767:B 1.02002
19 *170:17 *570:Y 1.02002
20 *170:6 *170:16 1.02002
21 *170:6 *170:5 1.29149
22 *170:17 *170:18 0.143509
23 *170:15 *170:6 0.287017
24 *170:15 *170:18 0.143509
*END

*D_NET *171 0.0030202

*CONN
*I *800:A I *C 29.315 25.625 *L 0.00239 *D CLKINVX2M
*I *759:B I *C 19.885 25.625 *L 0.00294 *D NAND2X2M
*I *689:B0 I *C 28.495 22.755 *L 0.00581 *D AOI21X4M
*I *666:A0N I *C 27.265 20.705 *L 0.00141 *D OAI2BB1X2M
*I *571:Y O *C 21.525 26.035 *L 0 *D BUFX4M

*CAP
1 *800:A 8.02402e-05
2 *759:B 5.60302e-05
3 *689:B0 5.60302e-05
4 *666:A0N 2.65506e-05
5 *571:Y 5.60302e-05
6 *171:5 0.000307256
7 *171:6 0.000299829
8 *171:7 0.00044331
9 *171:8 0.00044331
10 *171:9 0.000134992
11 *171:10 0.000127558
12 *171:11 7.76224e-05
13 *171:12 0.000115409
14 *171:14 0.000199369
15 *171:15 0.000100865
16 *171:16 0.000168828
17 *171:17 0.000102698
18 *171:18 4.66208e-05
19 *171:19 6.5284e-05
20 *171:20 0.000112378

*RES
1 *171:15 *759:B 1.01999
2 *171:14 *171:15 0.287
3 *666:A0N *171:19 0.274107
4 *171:14 *171:16 0.574
5 *171:18 *571:Y 1.01999
6 *171:6 *171:19 1.01999
7 *171:10 *689:B0 1.01999
8 *171:16 *171:17 0.287
9 *171:17 *171:18 0.1435
10 *171:6 *171:5 1.435
11 *171:10 *171:9 0.7175
12 *171:8 *171:17 1.01999
13 *171:20 *800:A 0.822357
14 *171:5 *171:12 0.1435
15 *171:12 *171:9 0.1435
16 *171:8 *171:7 2.296
17 *171:11 *171:20 1.01999
18 *171:12 *171:11 0.287
19 *171:11 *171:7 1.01999
20 *171:13 *171:11 0.204284
*END

*D_NET *172 0.00393994

*CONN
*I *802:A I *C 32.185 22.755 *L 0.00576 *D INVX4M
*I *777:C I *C 31.365 25.625 *L 0.00287 *D AND3X4M
*I *743:B I *C 24.395 25.625 *L 0.00291 *D NAND2BX2M
*I *701:C I *C 24.395 22.755 *L 0.00219 *D OR3X2M
*I *689:A1 I *C 26.445 22.755 *L 0.00593 *D AOI21X4M
*I *666:B0 I *C 26.445 19.475 *L 0.00251 *D OAI2BB1X2M
*I *623:A0N I *C 33.825 20.705 *L 0.00107 *D OAI2BB1X1M
*I *572:Y O *C 23.985 17.835 *L 0 *D BUFX8M

*CAP
1 *802:A 5.6033e-05
2 *777:C 5.6033e-05
3 *743:B 5.6033e-05
4 *701:C 5.6033e-05
5 *689:A1 5.6033e-05
6 *666:B0 5.6033e-05
7 *623:A0N 5.6033e-05
8 *572:Y 5.6033e-05
9 *172:8 0.000145071
10 *172:9 7.692e-05
11 *172:10 0.000275781
12 *172:11 0.000334209
13 *172:12 0.000140822
14 *172:13 0.000243682
15 *172:14 0.000243682
16 *172:15 0.000195741
17 *172:16 0.000166969
18 *172:17 0.000118432
19 *172:18 0.00052146
20 *172:19 0.000164081
21 *172:22 7.93549e-05
22 *172:23 7.19628e-05
23 *172:24 5.40119e-05
24 *172:25 5.40119e-05
25 *172:26 0.000371638
26 *172:27 8.29275e-05
27 *172:28 0.00015096

*RES
1 *172:23 *777:C 1.02001
2 *172:22 *172:23 0.286991
3 *172:27 *623:A0N 1.02001
4 *172:22 *172:25 0.143496
5 *172:27 *172:28 0.286991
6 *172:24 *172:25 0.143496
7 *172:13 *743:B 1.02001
8 *172:16 *172:28 0.430487
9 *172:24 *172:17 0.143496
10 *172:9 *572:Y 1.02001
11 *172:14 *701:C 1.02001
12 *172:14 *172:13 1.0045
13 *172:15 *802:A 1.02001
14 *172:16 *172:15 0.430487
15 *172:21 *172:15 0.204284
16 *172:15 *172:17 0.574013
17 *172:9 *172:8 0.430487
18 *172:19 *172:14 1.02001
19 *172:26 *172:15 1.02001
20 *172:8 *172:12 0.430487
21 *172:19 *172:18 0.717509
22 *172:18 *172:26 2.00900006
23 *172:11 *666:B0 1.02001
24 *172:12 *172:11 0.286991
25 *172:10 *689:A1 1.02001
26 *172:10 *172:18 1.02001
27 *172:11 *172:10 1.148
28 *172:20 *172:10 0.204284
*END

*D_NET *173 0.00409468

*CONN
*I *803:A I *C 20.295 31.365 *L 0.00576 *D INVX4M
*I *626:A1 I *C 28.905 28.495 *L 0.00595 *D OAI21X4M
*I *621:A1 I *C 19.885 19.885 *L 0.00595 *D OAI21X4M
*I *619:A0N I *C 29.725 32.185 *L 0.00141 *D OAI2BB1X2M
*I *573:Y O *C 22.755 30.545 *L 0 *D BUFX8M

*CAP
1 *803:A 0.000102885
2 *626:A1 0.00010047
3 *621:A1 5.6029e-05
4 *619:A0N 5.6029e-05
5 *573:Y 2.5151e-05
6 *173:5 0.000291074
7 *173:6 0.000283648
8 *173:7 0.00010573
9 *173:8 0.00010573
10 *173:9 0.000297765
11 *173:10 0.000231809
12 *173:11 0.000264759
13 *173:12 0.000264759
14 *173:13 0.000164479
15 *173:14 0.00062553
16 *173:15 0.000475311
17 *173:16 8.76324e-05
18 *173:17 5.70885e-05
19 *173:18 7.87938e-05
20 *173:19 0.000132608
21 *173:20 0.0001437
22 *173:21 0.0001437

*RES
1 *173:19 *626:A1 1.09644
2 *173:21 *619:A0N 1.01998
3 *173:17 *573:Y 0.274121
4 *173:8 *173:19 1.01998
5 *173:20 *173:21 0.717482
6 *173:17 *173:18 0.274121
7 *173:8 *173:7 0.574018
8 *173:13 *173:20 1.01998
9 *803:A *173:18 0.548241
10 *173:14 *173:7 1.01998
11 *173:14 *173:13 0.860987
12 *173:15 *173:14 2.58299994
13 *173:16 *803:A 1.01998
14 *173:9 *173:15 1.01998
15 *173:9 *173:16 0.430513
16 *173:6 *621:A1 1.01998
17 *173:10 *173:9 1.00449
18 *173:6 *173:5 1.435
19 *173:11 *173:10 0.143504
20 *173:12 *173:5 0.143504
21 *173:12 *173:11 1.00449
*END

*D_NET *174 0.00234005

*CONN
*I *796:B I *C 76.875 51.455 *L 0.00607 *D NOR2X4M
*I *791:A I *C 74.825 51.455 *L 0.00581 *D NAND2X4M
*I *711:B I *C 66.625 48.585 *L 0.00607 *D NOR2X4M
*I *574:Y O *C 69.495 48.995 *L 0 *D CLKBUFX6M

*CAP
1 *796:B 5.60274e-05
2 *791:A 5.60274e-05
3 *711:B 5.60274e-05
4 *574:Y 5.60274e-05
5 *174:4 0.000120702
6 *174:5 0.000120702
7 *174:6 0.000115255
8 *174:7 0.000115255
9 *174:8 0.000360362
10 *174:9 0.00050778
11 *174:12 0.000199587
12 *174:13 0.000112752
13 *174:14 4.58463e-05
14 *174:15 0.000216222
15 *174:16 4.58463e-05
16 *174:17 0.000155639

*RES
1 *174:5 *711:B 1.01999
2 *174:5 *174:4 0.717509
3 *174:7 *574:Y 1.01999
4 *174:12 *174:4 1.01999
5 *174:7 *174:6 0.573991
6 *174:12 *174:9 0.861
7 *174:9 *174:6 1.01999
8 *174:9 *174:8 1.722
9 *174:16 *796:B 1.01999
10 *174:11 *174:16 0.0349991
11 *174:8 *174:13 0.287009
12 *174:17 *174:16 1.01999
13 *174:13 *174:15 0.287009
14 *174:15 *174:17 0.717509
15 *174:14 *791:A 1.01999
16 *174:14 *174:15 1.01999
17 *174:10 *174:14 0.204267
*END

*D_NET *175 0.00145465

*CONN
*I *796:A I *C 77.695 51.865 *L 0.00584 *D NOR2X4M
*I *791:B I *C 76.055 51.455 *L 0.00636 *D NAND2X4M
*I *575:Y O *C 75.645 45.305 *L 0 *D BUFX4M

*CAP
1 *796:A 5.60283e-05
2 *791:B 5.60283e-05
3 *575:Y 5.60283e-05
4 *175:3 6.60496e-05
5 *175:4 7.34802e-05
6 *175:5 0.000327971
7 *175:6 0.00046644
8 *175:7 7.03201e-05
9 *175:8 0.000190412
10 *175:9 9.19001e-05

*RES
1 *175:9 *796:A 1.01999
2 *175:8 *175:9 0.430489
3 *175:7 *791:B 1.01999
4 *175:6 *175:8 0.573993
5 *175:6 *175:7 0.287009
6 *175:5 *175:6 1.57850003
7 *175:4 *175:5 0.143504
8 *175:3 *175:4 0.287009
9 *575:Y *175:3 1.01999
*END

*D_NET *176 0.00196164

*CONN
*I *794:A I *C 72.775 63.345 *L 0.00584 *D NOR2X4M
*I *750:B I *C 79.745 62.935 *L 0.00835 *D NAND2X6M
*I *726:A0 I *C 76.055 62.525 *L 0.00173 *D OA21X2M
*I *576:Y O *C 82.205 66.215 *L 0 *D CLKBUFX6M

*CAP
1 *794:A 5.60282e-05
2 *750:B 5.60282e-05
3 *726:A0 5.60282e-05
4 *576:Y 5.60282e-05
5 *176:7 4.58524e-05
6 *176:8 0.00016608
7 *176:9 5.97589e-05
8 *176:10 5.97589e-05
9 *176:11 0.000366009375
10 *176:12 4.44897e-05
11 *176:13 4.44897e-05
12 *176:14 0.000359497
13 *176:15 0.00016413
14 *176:16 0.000159567
15 *176:17 0.000171519
16 *176:18 5.18786e-05
17 *176:19 4.44897e-05

*RES
1 *176:19 *576:Y 1.02
2 *176:18 *176:19 0.143504
3 *176:17 *176:18 0.143504
4 *176:12 *750:B 1.02
5 *176:6 *176:12 0.0675349
6 *176:15 *176:17 0.861007
7 *176:9 *726:A0 1.02
8 *176:5 *176:9 0.0675349
9 *176:12 *176:13 0.143504
10 *176:16 *176:15 1.02
11 *176:9 *176:10 0.143504
12 *176:14 *176:13 1.02
13 *176:14 *176:16 0.861007
14 *176:11 *176:10 1.02
15 *176:11 *176:14 1.29149997
16 *176:8 *176:11 1.00449
17 *176:7 *794:A 1.02
18 *176:7 *176:8 1.02
19 *176:4 *176:7 0.0349991
*END

*D_NET *177 0.00204393

*CONN
*I *766:C I *C 69.495 77.285 *L 0.00219 *D OR3X2M
*I *735:AN I *C 75.235 83.025 *L 0.00276 *D NOR2BX4M
*I *712:A1N I *C 72.365 80.155 *L 0.00281 *D AOI2B1X4M
*I *577:Y O *C 68.675 83.435 *L 0 *D BUFX4M

*CAP
1 *766:C 5.60263e-05
2 *735:AN 5.60263e-05
3 *712:A1N 5.60263e-05
4 *577:Y 5.02886e-05
5 *177:4 0.00031283
6 *177:5 0.00031283
7 *177:6 0.000184691
8 *177:7 0.000184691
9 *177:8 0.00016385
10 *177:9 0.0001336
11 *177:11 0.000234559
12 *177:12 0.000208171
13 *177:13 4.44888e-05
14 *177:14 4.5854e-05

*RES
1 *177:5 *766:C 1.02001
2 *177:5 *177:4 1.86551
3 *177:11 *177:4 1.02001
4 *577:Y *177:11 0.548241
5 *177:9 *712:A1N 1.02001
6 *177:11 *177:12 1.9188
7 *177:9 *177:8 0.860995
8 *177:8 *177:12 1.02001
9 *177:8 *177:13 0.143494
10 *177:7 *177:13 1.02001
11 *177:7 *177:6 1.00449
12 *177:14 *735:AN 1.02001
13 *177:14 *177:6 1.02001
14 *177:10 *177:14 0.204277
*END

*D_NET *178 0.00250952

*CONN
*I *766:B I *C 69.905 77.285 *L 0.00223 *D OR3X2M
*I *715:B I *C 78.925 77.285 *L 0.00636 *D NAND2X4M
*I *679:A0 I *C 78.515 79.745 *L 0.00173 *D OA21X2M
*I *578:Y O *C 79.745 77.695 *L 0 *D BUFX4M

*CAP
1 *766:B 5.60289e-05
2 *715:B 8.8326e-05
3 *679:A0 5.60289e-05
4 *578:Y 4.95991e-05
5 *178:4 0.000236975
6 *178:5 0.000199269
7 *178:6 0.00051076
8 *178:7 0.00043983
9 *178:10 4.58503e-05
10 *178:11 0.000129297
11 *178:12 9.15915e-05
12 *178:13 4.58503e-05
13 *178:14 8.51929e-05
14 *178:14 *340:12 3.94e-05
15 *178:6 *340:13 3.94e-05
16 *178:6 *340:13 0.00017852
17 *178:7 *340:14 0.00017852
18 *178:12 *340:15 1.953e-05
19 *178:11 *340:16 1.95299963e-05

*RES
1 *178:12 *679:A0 1.01998
2 *178:11 *178:12 0.430513
3 *715:B *578:Y 0.548241
4 *178:4 *178:11 0.287009
5 *178:9 *178:13 0.20428
6 *178:13 *715:B 1.01998
7 *178:5 *178:4 0.574018
8 *178:14 *178:13 1.01998
9 *178:6 *178:5 1.01998
10 *178:6 *178:14 0.574018
11 *178:7 *178:6 2.58299994
12 *178:10 *766:B 1.01998
13 *178:10 *178:7 1.01998
14 *178:8 *178:10 0.20428
*END

*D_NET *179 0.0021846

*CONN
*I *794:B I *C 71.955 62.935 *L 0.00607 *D NOR2X4M
*I *648:B I *C 72.775 68.675 *L 0.00294 *D NAND2X2M
*I *609:A1 I *C 74.415 68.675 *L 0.0015 *D OA21X2M
*I *579:Y O *C 79.745 68.265 *L 0 *D BUFX4M

*CAP
1 *794:B 5.60292e-05
2 *648:B 5.60292e-05
3 *609:A1 5.60292e-05
4 *579:Y 5.02885e-05
5 *179:4 8.32287e-05
6 *179:5 0.000120937
7 *179:6 0.000270073
8 *179:7 0.000232359
9 *179:8 0.000202318
10 *179:9 0.00028566
11 *179:12 0.000105062
12 *179:13 4.58512e-05
13 *179:14 8.99021e-05
14 *179:15 8.90173e-05
15 *179:16 4.58512e-05
16 *179:17 8.24397e-05
17 *179:8 *99:14 0.00014056
18 *179:9 *99:11 0.00014056
19 *179:4 *99:8 1.62e-05
20 *179:5 *99:7 1.61999902e-05

*RES
1 *179:7 *794:B 1.02
2 *179:15 *579:Y 0.548219
3 *179:7 *179:6 1.43499994
4 *179:11 *179:16 0.204271
5 *179:16 *179:15 1.02
6 *179:6 *179:5 0.286996
7 *179:17 *179:16 1.02
8 *179:4 *648:B 1.02
9 *179:5 *179:4 0.573991
10 *179:14 *179:17 0.430504
11 *179:12 *179:4 1.02
12 *179:8 *179:14 0.143509
13 *179:12 *179:9 0.573991
14 *179:9 *179:8 1.148
15 *179:13 *609:A1 1.02
16 *179:13 *179:9 1.02
17 *179:10 *179:13 0.0814107
*END

*D_NET *180 0.00012128

*CONN
*I *584:Q O *C 68.265 70.725 *L 0 *D DFFRQX2M
*I *443:A I *C 69.085 71.545 *L 0.00166 *D BUFX2M

*CAP
1 *180:2 6.064e-05
2 *180:3 6.064e-05

*RES
1 *180:3 *443:A 1.01999998
2 *180:2 *180:3 0.286999
3 *584:Q *180:2 1.01999998
*END

*D_NET *181 0.000990194

*CONN
*I *590:Q O *C 84.665 70.725 *L 0 *D DFFRQX2M
*I *579:A I *C 80.975 68.675 *L 0.00276 *D BUFX4M

*CAP
1 *590:Q 5.84172e-05
2 *579:A 0.00027698
3 *181:2 0.00043668
4 *181:3 0.000218117

*RES
1 *590:Q *181:3 0.822343
2 *181:2 *181:3 1.37059
3 *579:A *181:2 3.28937149
*END

*D_NET *182 0.000636301

*CONN
*I *815:Q O *C 73.595 74.005 *L 0 *D DFFRX1M
*I *793:A I *C 72.365 77.285 *L 0.00214 *D NAND2X1M

*CAP
1 *815:Q 5.60318e-05
2 *793:A 5.60318e-05
3 *182:2 0.00023919
4 *182:3 0.000171158
5 *182:4 0.000113889

*RES
1 *182:3 *793:A 1.02
2 *182:4 *815:Q 1.02
3 *182:2 *182:3 1.148
4 *182:2 *182:4 0.4305
*END

*D_NET *183 0.00103918

*CONN
*I *636:Q O *C 84.255 75.235 *L 0 *D DFFRQX2M
*I *578:A I *C 80.975 77.285 *L 0.00276 *D BUFX4M

*CAP
1 *636:Q 8.29116e-05
2 *578:A 0.00027698
3 *183:2 0.000242611
4 *183:3 0.00043668

*RES
1 *636:Q *183:2 1.09644
2 *183:2 *183:3 1.37059
3 *578:A *183:3 3.28937149
*END

*D_NET *184 0.000904707

*CONN
*I *675:Q O *C 62.935 80.975 *L 0 *D DFFRQX2M
*I *577:A I *C 67.445 83.025 *L 0.00276 *D BUFX4M

*CAP
1 *675:Q 5.60306e-05
2 *577:A 0.000277133
3 *184:2 0.000131141
4 *184:3 0.00030927
5 *184:4 0.000131141

*RES
1 *184:3 *577:A 3.01525712
2 *184:4 *184:3 1.01998
3 *184:2 *184:4 0.717513
4 *675:Q *184:2 1.01998
*END

*D_NET *185 4.964e-05

*CONN
*I *714:Q O *C 80.565 64.985 *L 0 *D DFFRQX2M
*I *576:A I *C 80.975 65.805 *L 0.00235 *D CLKBUFX6M

*CAP
1 *714:Q 2.482e-05
2 *576:A 2.482e-05

*RES
1 *714:Q *576:A 0.274114
*END

*D_NET *186 0.00126344

*CONN
*I *814:Q O *C 70.725 56.785 *L 0 *D DFFRX1M
*I *746:AN I *C 68.265 62.935 *L 0.00159 *D NOR2BX2M

*CAP
1 *814:Q 5.60306e-05
2 *746:AN 5.60306e-05
3 *186:2 0.00018699
4 *186:3 0.0001796
5 *186:4 0.00036577
6 *186:5 0.000244288
7 *186:6 0.000174728

*RES
1 *186:6 *814:Q 1.02
2 *186:4 *186:6 0.717502
3 *186:3 *746:AN 1.02
4 *186:4 *186:5 1.29149997
5 *186:2 *186:3 0.861007
6 *186:2 *186:5 0.143504
*END

*D_NET *187 0.000725749

*CONN
*I *749:Q O *C 79.745 47.765 *L 0 *D DFFRQX2M
*I *575:A I *C 76.875 45.715 *L 0.00276 *D BUFX4M

*CAP
1 *749:Q 5.60303e-05
2 *575:A 0.00012402
3 *187:2 0.00015616
4 *187:3 9.09295e-05
5 *187:4 0.000128719
6 *187:5 0.00010384
7 *187:6 6.60502e-05

*RES
1 *187:6 *749:Q 1.02
2 *187:5 *187:6 0.286993
3 *187:4 *187:5 0.286993
4 *187:3 *187:4 0.430499
5 *187:2 *187:3 1.02
6 *575:A *187:2 1.37057137
*END

*D_NET *188 0.000685561

*CONN
*I *674:Q O *C 72.775 52.275 *L 0 *D DFFRQX2M
*I *574:A I *C 70.725 48.585 *L 0.00235 *D CLKBUFX6M

*CAP
1 *674:Q 5.60321e-05
2 *574:A 2.48184e-05
3 *188:2 6.355e-05
4 *188:3 0.000112312
5 *188:4 0.00021082
6 *188:5 0.000158269
7 *188:6 5.97605e-05

*RES
1 *188:6 *674:Q 1.01999998
2 *188:5 *188:6 0.1435
3 *188:4 *188:5 0.573999
4 *188:3 *188:4 0.573999
5 *188:2 *188:3 1.01999998
6 *574:A *188:2 0.274113
*END

*D_NET *189 0.000575001

*CONN
*I *651:Q O *C 24.805 35.055 *L 0 *D DFFRQX2M
*I *573:A I *C 23.575 31.365 *L 0.00499 *D BUFX8M

*CAP
1 *651:Q 5.60312e-05
2 *573:A 5.60312e-05
3 *189:2 5.73991e-05
4 *189:3 0.00012555
5 *189:4 0.00017407
6 *189:5 0.000105919

*RES
1 *189:5 *651:Q 1.01999998
2 *189:4 *189:5 0.430499
3 *189:3 *189:4 0.430499
4 *189:2 *189:3 0.286999
5 *573:A *189:2 1.01999998
*END

*D_NET *190 0.000555722

*CONN
*I *601:Q O *C 17.835 13.325 *L 0 *D DFFRQX2M
*I *440:A I *C 19.065 17.015 *L 0.00166 *D BUFX2M

*CAP
1 *601:Q 5.60312e-05
2 *440:A 5.60312e-05
3 *190:2 4.44899e-05
4 *190:3 0.000112639
5 *190:4 0.00017734
6 *190:5 0.000109191

*RES
1 *190:5 *440:A 1.01999998
2 *190:4 *190:5 0.573999
3 *190:3 *190:4 0.430499
4 *190:2 *190:3 0.1435
5 *601:Q *190:2 1.01999998
*END

*D_NET *191 0.000963541

*CONN
*I *586:Q O *C 23.575 29.315 *L 0 *D DFFRQX2M
*I *571:A I *C 20.295 25.625 *L 0.00276 *D BUFX4M

*CAP
1 *586:Q 5.60292e-05
2 *571:A 5.60292e-05
3 *191:2 0.00010983
4 *191:3 0.00010983
5 *191:4 0.00025851
6 *191:5 0.00025851
7 *191:6 5.7398e-05
8 *191:7 5.7398e-05

*RES
1 *191:2 *586:Q 1.02
2 *191:3 *191:2 0.4305
3 *191:4 *191:3 1.02
4 *191:5 *191:4 1.148
5 *191:6 *191:5 1.02
6 *191:7 *191:6 0.287
7 *571:A *191:7 1.02
*END

*D_NET *192 0.00185386

*CONN
*I *807:Q O *C 26.855 13.325 *L 0 *D DFFRX2M
*I *446:A I *C 35.465 11.275 *L 0.00166 *D BUFX2M

*CAP
1 *807:Q 5.6023e-05
2 *446:A 5.6023e-05
3 *192:2 0.00067877
4 *192:3 0.00067877
5 *192:4 0.000123222
6 *192:5 0.000123222
7 *192:6 6.89076e-05
8 *192:7 6.89076e-05

*RES
1 *192:6 *446:A 1.01998
2 *192:6 *192:7 0.287022
3 *192:2 *192:7 1.01998
4 *192:3 *192:2 3.01349998
5 *192:5 *807:Q 1.01998
6 *192:4 *192:3 1.01998
7 *192:4 *192:5 0.430487
*END

*D_NET *193 0.0005386

*CONN
*I *808:Q O *C 38.335 14.555 *L 0 *D DFFRX1M
*I *569:A I *C 39.155 17.015 *L 0.00276 *D BUFX4M

*CAP
1 *808:Q 5.60297e-05
2 *569:A 5.60297e-05
3 *193:2 0.000134300332
4 *193:3 9.65913e-05
5 *193:4 0.000116681
6 *193:5 7.89695e-05

*RES
1 *193:5 *569:A 1.01999998
2 *193:4 *193:5 0.573999
3 *193:2 *193:4 0.286999
4 *193:3 *193:2 0.286999
5 *808:Q *193:3 1.01999998
*END

*D_NET *194 0.00056493

*CONN
*I *817:Q O *C 51.865 12.095 *L 0 *D DFFRX2M
*I *458:A I *C 54.325 11.275 *L 0.00166 *D BUFX2M

*CAP
1 *817:Q 0.000111691
2 *458:A 5.60308e-05
3 *194:2 0.00014383
4 *194:3 8.357e-05
5 *194:4 0.000103759
6 *194:5 6.60497e-05

*RES
1 *194:5 *458:A 1.02
2 *194:4 *194:5 0.286997
3 *194:3 *194:4 0.286997
4 *194:2 *194:3 1.02
5 *817:Q *194:2 1.09645712
*END

*D_NET *195 0.000542881

*CONN
*I *809:Q O *C 42.025 30.545 *L 0 *D DFFRX2M
*I *567:A I *C 41.205 28.495 *L 0.00235 *D CLKBUFX6M

*CAP
1 *809:Q 5.6029e-05
2 *567:A 4.96e-05
3 *195:2 8.83308e-05
4 *195:3 0.00017446
5 *195:4 0.00017446

*RES
1 *195:4 *809:Q 1.01999998
2 *195:3 *195:4 0.717499
3 *195:2 *195:3 1.01999998
4 *567:A *195:2 0.548225
*END

*D_NET *196 0.00139491

*CONN
*I *592:Q O *C 26.445 40.795 *L 0 *D DFFRQX2M
*I *566:A I *C 19.065 37.105 *L 0.00276 *D BUFX4M

*CAP
1 *592:Q 5.60305e-05
2 *566:A 5.60305e-05
3 *196:2 0.00047472
4 *196:3 0.00047472
5 *196:5 0.000143781
6 *196:6 0.000143781
7 *196:7 4.58458e-05

*RES
1 *196:5 *566:A 1.01998
2 *196:5 *196:6 0.717482
3 *196:3 *196:6 1.01998
4 *196:3 *196:2 2.58299994
5 *196:7 *196:2 1.01998
6 *196:7 *592:Q 1.01998
7 *196:4 *196:7 0.20428
*END

*D_NET *197 0.000688059

*CONN
*I *813:Q O *C 16.605 51.045 *L 0 *D DFFRX1M
*I *470:A I *C 17.835 48.585 *L 0.00166 *D BUFX2M

*CAP
1 *813:Q 5.60313e-05
2 *470:A 5.60313e-05
3 *197:2 0.000164738
4 *197:3 9.65914e-05
5 *197:4 0.000123258
6 *197:5 0.00019141

*RES
1 *197:4 *470:A 1.01999998
2 *197:4 *197:5 0.573999
3 *197:3 *813:Q 1.01999998
4 *197:2 *197:5 0.430499
5 *197:2 *197:3 0.286999
*END

*D_NET *198 0.0005756

*CONN
*I *618:Q O *C 34.645 52.275 *L 0 *D DFFRQX2M
*I *564:A I *C 33.415 48.585 *L 0.00499 *D BUFX8M

*CAP
1 *618:Q 5.60311e-05
2 *564:A 5.60311e-05
3 *198:2 0.000119129
4 *198:3 0.00018728
5 *198:4 0.000112639
6 *198:5 4.44888e-05

*RES
1 *198:5 *618:Q 1.01999998
2 *198:4 *198:5 0.1435
3 *198:3 *198:4 0.430499
4 *198:2 *198:3 0.573999
5 *564:A *198:2 1.01999998
*END

*D_NET *199 0.0010143

*CONN
*I *595:Q O *C 56.785 47.765 *L 0 *D SDFFRQX2M
*I *444:A I *C 51.865 45.715 *L 0.00166 *D BUFX2M

*CAP
1 *595:Q 5.60281e-05
2 *444:A 5.60281e-05
3 *199:2 7.19613e-05
4 *199:3 7.19613e-05
5 *199:4 7.03167e-05
6 *199:5 7.03167e-05
7 *199:6 0.00030884
8 *199:7 0.00030884

*RES
1 *199:4 *595:Q 1.01999
2 *199:5 *199:4 0.287009
3 *199:6 *199:5 1.01999
4 *199:7 *199:6 1.722
5 *199:2 *199:7 1.01999
6 *199:3 *199:2 0.4305
7 *444:A *199:3 1.01999
*END

*D_NET *200 0.0012185

*CONN
*I *596:Q O *C 36.285 58.015 *L 0 *D SDFFRQX2M
*I *562:A I *C 40.385 60.065 *L 0.00499 *D BUFX8M

*CAP
1 *596:Q 5.60296e-05
2 *562:A 5.60296e-05
3 *200:2 7.93072e-05
4 *200:3 7.93072e-05
5 *200:4 0.00032055
6 *200:5 0.000153361
7 *200:6 0.00032055
8 *200:7 0.000153361

*RES
1 *200:7 *562:A 1.02
2 *200:5 *200:7 0.430504
3 *200:6 *200:5 1.02
4 *200:4 *200:6 1.43499994
5 *200:3 *200:4 1.02
6 *200:2 *200:3 0.286996
7 *596:Q *200:2 1.02
*END

*D_NET *201 0.00127852

*CONN
*I *594:Q O *C 34.235 47.765 *L 0 *D SDFFRQX2M
*I *561:A I *C 39.975 51.455 *L 0.00235 *D CLKBUFX6M

*CAP
1 *594:Q 5.60314e-05
2 *561:A 4.96004e-05
3 *201:3 4.58491e-05
4 *201:4 0.000232247
5 *201:5 0.00027016
6 *201:6 0.000155661
7 *201:7 0.00013474
8 *201:8 0.000117747
9 *201:9 8.17426e-05
10 *201:10 0.00013474

*RES
1 *201:9 *561:A 0.548232
2 *201:10 *201:9 1.02
3 *201:7 *201:10 0.4305
4 *201:8 *201:7 1.02
5 *201:6 *201:8 0.574
6 *201:5 *201:6 0.287
7 *201:4 *201:5 1.148
8 *201:3 *201:4 1.02
9 *201:3 *594:Q 1.02
10 *201:2 *201:3 0.204267
*END

*D_NET *202 0.000802622

*CONN
*I *818:Q O *C 51.455 20.295 *L 0 *D DFFRX1M
*I *560:A I *C 51.455 17.015 *L 0.00276 *D BUFX4M

*CAP
1 *818:Q 5.60319e-05
2 *560:A 5.60319e-05
3 *202:2 0.00034528
4 *202:3 0.00034528

*RES
1 *202:3 *818:Q 1.02
2 *202:2 *202:3 1.148
3 *560:A *202:2 1.02
*END

*D_NET *203 0.00149869

*CONN
*I *603:Q O *C 80.975 29.315 *L 0 *D DFFRQX2M
*I *559:A I *C 77.285 34.235 *L 0.00276 *D BUFX4M

*CAP
1 *603:Q 5.60297e-05
2 *559:A 5.60297e-05
3 *203:3 9.89394e-05
4 *203:4 0.000225458
5 *203:5 0.00010637
6 *203:6 0.000102139
7 *203:7 9.47088e-05
8 *203:8 0.000243850938
9 *203:9 0.000243850938
10 *203:10 4.58493e-05
11 *203:11 0.000225458

*RES
1 *203:7 *559:A 1.02
2 *203:6 *203:7 0.573998
3 *203:6 *203:9 0.143504
4 *203:8 *203:9 1.29149997
5 *203:5 *203:8 0.143504
6 *203:3 *203:5 0.430493
7 *203:4 *203:3 1.02
8 *203:4 *203:11 1.29149997
9 *203:10 *203:11 1.02
10 *203:10 *603:Q 1.02
11 *203:2 *203:10 0.20428
*END

*D_NET *204 0.000553599

*CONN
*I *616:Q O *C 60.065 36.285 *L 0 *D DFFRQX2M
*I *558:A I *C 58.835 34.235 *L 0.00276 *D BUFX4M

*CAP
1 *616:Q 5.60291e-05
2 *558:A 5.60291e-05
3 *204:2 7.14084e-05
4 *204:3 0.00013956
5 *204:4 0.00014936
6 *204:5 8.12107e-05

*RES
1 *204:5 *616:Q 1.01999998
2 *204:4 *204:5 0.286999
3 *204:3 *204:4 0.430499
4 *204:2 *204:3 0.430499
5 *558:A *204:2 1.01999998
*END

*D_NET *205 0.000714669

*CONN
*I *614:Q O *C 81.795 24.805 *L 0 *D DFFRQX2M
*I *557:A I *C 78.925 22.755 *L 0.00276 *D BUFX4M

*CAP
1 *614:Q 5.60296e-05
2 *557:A 0.000148841
3 *205:2 0.00018098
4 *205:3 9.09305e-05
5 *205:4 9.83591e-05
6 *205:5 7.34801e-05
7 *205:6 6.60487e-05

*RES
1 *205:6 *614:Q 1.02
2 *205:5 *205:6 0.286997
3 *205:4 *205:5 0.143498
4 *205:3 *205:4 0.430495
5 *205:2 *205:3 1.02
6 *557:A *205:2 1.64468575
*END

*D_NET *206 0.00051489

*CONN
*I *611:Q O *C 81.795 30.545 *L 0 *D DFFRQX2M
*I *556:A I *C 81.385 34.235 *L 0.00276 *D BUFX4M

*CAP
1 *611:Q 2.65501e-05
2 *556:A 4.95993e-05
3 *206:2 6.52792e-05
4 *206:3 0.00014586
5 *206:4 8.17404e-05
6 *206:5 0.00014586

*RES
1 *611:Q *206:2 0.274113
2 *206:3 *206:2 1.01999998
3 *206:3 *206:5 0.717499
4 *206:4 *206:5 1.01999998
5 *556:A *206:4 0.548225
*END

*D_NET *207 0.00120055

*CONN
*I *600:Q O *C 82.615 19.065 *L 0 *D DFFRQX2M
*I *555:A I *C 76.875 22.755 *L 0.00276 *D BUFX4M

*CAP
1 *600:Q 5.60301e-05
2 *555:A 5.60301e-05
3 *207:3 0.00018336
4 *207:4 0.00033796
5 *207:5 0.00018336
6 *207:6 4.58503e-05
7 *207:7 0.00033796

*RES
1 *207:5 *555:A 1.02001
2 *207:3 *207:5 0.861004
3 *207:4 *207:3 1.02001
4 *207:4 *207:7 2.00900006
5 *207:6 *207:7 1.02001
6 *207:6 *600:Q 1.02001
7 *207:2 *207:6 0.204284
*END

*D_NET *208 0.00115225

*CONN
*I *617:Q O *C 85.075 36.285 *L 0 *D DFFRQX2M
*I *554:A I *C 79.335 34.235 *L 0.00276 *D BUFX4M

*CAP
1 *617:Q 5.60301e-05
2 *554:A 5.60301e-05
3 *208:2 0.000137649
4 *208:3 0.000137649
5 *208:5 0.00033796
6 *208:6 4.44889e-05
7 *208:7 0.00033796
8 *208:8 4.44889e-05

*RES
1 *208:3 *554:A 1.02001
2 *208:3 *208:2 0.574013
3 *208:5 *208:2 1.02001
4 *208:5 *208:7 2.00900006
5 *208:8 *617:Q 1.02001
6 *208:6 *208:7 1.02001
7 *208:6 *208:8 0.143496
8 *208:4 *208:6 0.0675328
*END

*D_NET *209 0.000985581

*CONN
*I *604:Q O *C 67.855 13.325 *L 0 *D DFFRQX2M
*I *553:A I *C 62.935 11.275 *L 0.00276 *D BUFX4M

*CAP
1 *604:Q 5.60323e-05
2 *553:A 0.000297658
3 *209:2 0.0003296
4 *209:3 7.06677e-05
5 *209:4 0.000115811
6 *209:5 0.000115811

*RES
1 *209:5 *604:Q 1.02
2 *209:4 *209:5 0.573994
3 *209:3 *209:4 1.02
4 *209:2 *209:3 0.274098
5 *553:A *209:2 3.28937149
*END

*D_NET *210 0.000898238

*CONN
*I *812:Q O *C 41.615 79.745 *L 0 *D DFFRX1M
*I *552:A I *C 42.845 74.415 *L 0.00235 *D CLKBUFX6M

*CAP
1 *812:Q 5.60298e-05
2 *552:A 5.60298e-05
3 *210:2 0.0002013
4 *210:3 0.000133149
5 *210:4 0.000191789
6 *210:5 0.00025994

*RES
1 *210:3 *552:A 1.02
2 *210:3 *210:2 0.7175
3 *210:4 *812:Q 1.02
4 *210:5 *210:2 0.4305
5 *210:5 *210:4 1.148
*END

*D_NET *211 0.000763237

*CONN
*I *811:Q O *C 39.155 66.215 *L 0 *D DFFRX1M
*I *551:A I *C 37.105 68.675 *L 0.00276 *D BUFX4M

*CAP
1 *811:Q 5.6028e-05
2 *551:A 5.6028e-05
3 *211:2 0.000201322
4 *211:3 7.24482e-05
5 *211:4 0.00012427
6 *211:5 0.00025314

*RES
1 *211:3 *811:Q 1.01999998
2 *211:4 *551:A 1.01999998
3 *211:3 *211:2 0.286999
4 *211:5 *211:4 0.573999
5 *211:5 *211:2 0.717499
*END

*D_NET *212 0.000941861

*CONN
*I *605:Q O *C 32.595 80.975 *L 0 *D DFFRQX2M
*I *550:A I *C 36.695 83.025 *L 0.00499 *D BUFX8M

*CAP
1 *605:Q 5.60299e-05
2 *550:A 0.000248041
3 *212:2 0.000111627
4 *212:3 0.000102612
5 *212:4 0.000111627
6 *212:5 0.00031192

*RES
1 *212:5 *550:A 2.74114275
2 *212:3 *212:5 0.54822
3 *212:4 *212:3 1.01998
4 *212:2 *212:4 0.43052
5 *605:Q *212:2 1.01998
*END

*D_NET *213 0.00105511

*CONN
*I *615:Q O *C 66.625 64.985 *L 0 *D DFFRQX2M
*I *549:A I *C 61.705 62.935 *L 0.00276 *D BUFX4M

*CAP
1 *615:Q 5.60276e-05
2 *549:A 0.000151339
3 *213:2 0.000190069
4 *213:3 9.62616e-05
5 *213:4 0.00025525
6 *213:5 0.000232578
7 *213:6 7.35896e-05

*RES
1 *213:6 *615:Q 1.02
2 *213:5 *213:6 0.286997
3 *213:4 *213:5 0.860991
4 *213:3 *213:4 0.430495
5 *213:2 *213:3 1.02
6 *549:A *213:2 1.64468575
*END

*D_NET *214 0.000937624

*CONN
*I *816:Q O *C 60.065 79.745 *L 0 *D DFFRX1M
*I *624:A0N I *C 58.425 83.845 *L 0.00141 *D OAI2BB1X2M

*CAP
1 *816:Q 5.60289e-05
2 *624:A0N 0.000106192
3 *214:2 0.0002833
4 *214:3 7.06705e-05
5 *214:4 0.0002833
6 *214:5 0.000138133

*RES
1 *214:2 *816:Q 1.02
2 *214:2 *214:4 1.29149997
3 *214:3 *214:4 1.02
4 *214:3 *214:5 0.274121
5 *624:A0N *214:5 1.09646
*END

*D_NET *215 0.000784819

*CONN
*I *810:Q O *C 55.965 68.265 *L 0 *D DFFRX1M
*I *462:A I *C 55.965 71.545 *L 0.00166 *D BUFX2M

*CAP
1 *810:Q 5.603e-05
2 *462:A 5.603e-05
3 *215:2 0.00033638
4 *215:3 0.00033638

*RES
1 *215:2 *462:A 1.02
2 *215:3 *215:2 1.148
3 *810:Q *215:3 1.02
*END

*D_NET *216 0.00146353

*CONN
*I *637:Q O *C 44.485 76.465 *L 0 *D SDFFRQX2M
*I *547:A I *C 50.635 74.415 *L 0.00317 *D BUFX5M

*CAP
1 *637:Q 5.60309e-05
2 *547:A 5.60309e-05
3 *216:2 0.000268509
4 *216:3 0.000268509
5 *216:5 4.58509e-05
6 *216:6 0.0003843
7 *216:7 0.0003843

*RES
1 *216:3 *547:A 1.01999
2 *216:3 *216:2 1.00448
3 *216:7 *216:2 1.01999
4 *216:6 *216:7 2.15249991
5 *216:5 *216:6 1.01999
6 *216:5 *637:Q 1.01999
7 *216:4 *216:5 0.20426
*END

*D_NET *217 0.00290034

*CONN
*I *774:B1 I *C 32.595 71.545 *L 0.00167 *D AO22X2M
*I *672:Q O *C 35.055 69.495 *L 0 *D SDFFRQX2M
*I *672:SI I *C 26.445 68.675 *L 0.000896 *D SDFFRQX2M

*CAP
1 *774:B1 0.000389113
2 *672:Q 5.60316e-05
3 *672:SI 5.60316e-05
4 *217:3 0.000158278
5 *217:4 0.000194428
6 *217:5 5.03961e-05
7 *217:7 0.0006228
8 *217:8 0.000421254
9 *217:9 4.5844e-05
10 *217:10 0.0006228
11 *217:3 *2:200 0.00014169
12 *217:4 *2:201 0.000141689995

*RES
1 *217:8 *774:B1 4.11171436
2 *217:3 *217:8 1.02002
3 *217:4 *672:SI 1.02002
4 *217:4 *217:3 1.00453
5 *217:5 *217:4 0.143486
6 *217:7 *217:5 1.02002
7 *217:7 *217:10 3.01352
8 *217:9 *217:10 1.02002
9 *217:9 *672:Q 1.02002
10 *217:6 *217:9 0.204281
*END

*D_NET *218 0.00203551

*CONN
*I *684:Q O *C 10.045 70.725 *L 0 *D SDFFRQX2M
*I *456:A I *C 21.935 71.545 *L 0.00166 *D BUFX2M

*CAP
1 *684:Q 5.6039e-05
2 *456:A 5.6039e-05
3 *218:2 0.00086616
4 *218:3 0.00086616
5 *218:5 4.58489e-05
6 *218:6 7.26393e-05
7 *218:7 7.26393e-05

*RES
1 *218:6 *456:A 1.01999
2 *218:6 *218:7 0.287018
3 *218:2 *218:7 1.01999
4 *218:3 *218:2 4.16149998
5 *218:5 *218:3 1.01999
6 *218:5 *684:Q 1.01999
7 *218:4 *218:5 0.204278
*END

*D_NET *219 0.00271371

*CONN
*I *773:B1 I *C 29.725 74.415 *L 0.00167 *D AO22X2M
*I *669:Q O *C 23.575 75.235 *L 0 *D SDFFRQX2M
*I *669:SI I *C 14.965 74.415 *L 0.000896 *D SDFFRQX2M

*CAP
1 *773:B1 0.000104498
2 *669:Q 5.60303e-05
3 *669:SI 5.60303e-05
4 *219:3 7.7866e-05
5 *219:4 7.7866e-05
6 *219:5 0.00076483
7 *219:6 0.000545867
8 *219:7 9.65855e-05
9 *219:8 9.65855e-05
10 *219:10 4.58536e-05
11 *219:11 0.000136639
12 *219:12 0.000233213
13 *219:12 *146:9 4.013e-05
14 *219:5 *146:10 4.013e-05
15 *219:12 *146:10 3.052e-05
16 *219:5 *146:11 3.052e-05
17 *219:5 *146:10 0.00014028
18 *219:6 *146:11 0.000140280004

*RES
1 *219:11 *773:B1 1.09645
2 *219:4 *669:SI 1.01998
3 *219:8 *219:11 1.01998
4 *219:4 *219:3 0.287022
5 *219:8 *219:7 0.287022
6 *219:6 *219:3 1.01998
7 *219:12 *219:7 1.01998
8 *219:6 *219:5 3.01349998
9 *219:5 *219:12 1.57848
10 *219:10 *219:5 1.01998
11 *219:10 *669:Q 1.01998
12 *219:9 *219:10 0.204254
*END

*D_NET *220 0.00299233

*CONN
*I *773:A1 I *C 32.185 74.415 *L 0.00197 *D AO22X2M
*I *668:Q O *C 28.495 82.205 *L 0 *D SDFFRQX2M
*I *668:SI I *C 19.885 83.025 *L 0.000896 *D SDFFRQX2M

*CAP
1 *773:A1 5.60269e-05
2 *668:Q 0.000279413
3 *668:SI 5.60269e-05
4 *220:3 0.000371224
5 *220:4 0.000378649
6 *220:5 0.000209771
7 *220:6 0.000202338
8 *220:8 6.60525e-05
9 *220:9 6.60525e-05
10 *220:10 0.0005027
11 *220:11 4.58478e-05
12 *220:12 0.0005027
13 *220:13 0.000255519

*RES
1 *220:6 *773:A1 1.01998
2 *220:6 *220:5 1.00448
3 *220:4 *220:5 0.143511
4 *220:8 *668:SI 1.01998
5 *220:4 *220:3 1.72199
6 *220:8 *220:9 0.287022
7 *220:13 *220:3 1.01998
8 *220:10 *220:9 1.01998
9 *668:Q *220:13 2.1929
10 *220:10 *220:12 3.01349998
11 *220:11 *220:12 1.01998
12 *220:11 *668:Q 1.01998
13 *220:7 *220:11 0.204254
*END

*D_NET *221 0.000393361

*CONN
*I *673:Q O *C 23.575 76.465 *L 0 *D SDFFRQX2M
*I *546:A I *C 23.985 74.415 *L 0.0017 *D CLKBUFX2M

*CAP
1 *673:Q 2.79317e-05
2 *546:A 5.603e-05
3 *221:2 0.00012137
4 *221:3 6.66604e-05
5 *221:4 0.00012137

*RES
1 *221:2 *546:A 1.01999998
2 *221:2 *221:4 0.717499
3 *221:3 *221:4 1.01999998
4 *673:Q *221:3 0.274113
*END

*D_NET *222 0.00210645

*CONN
*I *740:B I *C 28.905 77.285 *L 0.00278 *D MX3X2M
*I *670:Q O *C 27.265 80.975 *L 0 *D SDFFRQX2M
*I *670:SI I *C 18.655 80.155 *L 0.000896 *D SDFFRQX2M

*CAP
1 *740:B 5.60304e-05
2 *670:Q 0.000167718
3 *670:SI 5.60304e-05
4 *222:3 0.000151789
5 *222:4 0.000151789
6 *222:5 4.66158e-05
7 *222:6 4.66158e-05
8 *222:9 0.000117012
9 *222:10 0.00039424
10 *222:11 0.000124465
11 *222:12 0.00039424
12 *222:13 0.000108842
13 *222:14 4.58458e-05
14 *222:15 0.000101383
15 *222:16 0.00014383

*RES
1 *222:4 *740:B 1.01999
2 *222:4 *222:3 0.717489
3 *222:16 *222:3 1.01999
4 *670:Q *222:16 1.09645
5 *222:8 *222:14 0.20426
6 *222:14 *670:Q 1.01999
7 *222:15 *222:14 1.01999
8 *222:13 *222:15 0.430493
9 *222:12 *222:13 0.143498
10 *222:10 *222:12 2.15249991
11 *222:10 *222:11 0.143498
12 *222:9 *222:11 0.430493
13 *222:5 *222:9 1.01999
14 *222:6 *670:SI 1.01999
15 *222:6 *222:5 0.143498
16 *222:7 *222:6 0.0675284
*END

*D_NET *223 0.00209528

*CONN
*I *739:A I *C 30.545 65.805 *L 0.00265 *D MX3X1M
*I *671:Q O *C 35.875 63.755 *L 0 *D SDFFRQX2M
*I *671:SI I *C 27.265 62.935 *L 0.000896 *D SDFFRQX2M

*CAP
1 *739:A 5.60317e-05
2 *671:Q 5.60317e-05
3 *671:SI 5.60317e-05
4 *223:3 0.000105439
5 *223:4 0.000105439
6 *223:5 0.00021833
7 *223:6 0.00021833
8 *223:7 0.00060977
9 *223:8 0.000220637
10 *223:9 0.000403387
11 *223:11 4.58432e-05

*RES
1 *223:3 *671:SI 1.02
2 *223:5 *739:A 1.02
3 *223:4 *223:3 0.286987
4 *223:6 *223:5 1.2915
5 *223:8 *223:4 1.02
6 *223:7 *223:6 1.02
7 *223:8 *223:7 1.148
8 *223:7 *223:9 1.86549997
9 *223:11 *223:9 1.02
10 *223:11 *671:Q 1.02
11 *223:10 *223:11 0.204267
*END

*D_NET *224 0.00108478

*CONN
*I *685:Q O *C 15.375 58.015 *L 0 *D SDFFRQX2M
*I *469:A I *C 21.115 54.325 *L 0.0017 *D CLKBUFX2M

*CAP
1 *685:Q 5.6028e-05
2 *469:A 0.00034726
3 *224:2 0.0003792
4 *224:3 7.06671e-05
5 *224:4 0.000115811
6 *224:5 0.000115811

*RES
1 *224:5 *685:Q 1.02001
2 *224:4 *224:5 0.573977
3 *224:3 *224:4 1.02001
4 *224:2 *469:A 3.83759999
5 *224:2 *224:3 0.274106
*END

*D_NET *225 0.00205469

*CONN
*I *705:Q O *C 65.805 53.505 *L 0 *D DFFRQX2M
*I *449:A I *C 54.735 57.195 *L 0.00166 *D BUFX2M

*CAP
1 *705:Q 5.603e-05
2 *449:A 5.603e-05
3 *225:2 0.000188287
4 *225:3 0.000188287
5 *225:5 0.00025563
6 *225:6 0.000263088594
7 *225:7 0.000261431
8 *225:8 0.00024304
9 *225:9 0.000261431
10 *225:10 4.58493e-05
11 *225:11 0.000235581

*RES
1 *225:2 *449:A 1.02
2 *225:3 *225:2 0.717502
3 *225:5 *225:3 1.02
4 *225:5 *225:6 1.29149997
5 *225:6 *225:7 0.143504
6 *225:7 *225:9 1.29149997
7 *225:8 *225:9 0.143504
8 *225:8 *225:11 1.29149997
9 *225:10 *225:11 1.02
10 *225:10 *705:Q 1.02
11 *225:4 *225:10 0.20428
*END

*D_NET *226 0.000577837

*CONN
*I *813:QN O *C 17.425 51.865 *L 0 *D DFFRX1M
*I *455:A I *C 15.375 51.455 *L 0.00166 *D BUFX2M

*CAP
1 *813:QN 5.60302e-05
2 *455:A 5.60302e-05
3 *226:2 5.74002e-05
4 *226:3 0.00018627
5 *226:4 4.66194e-05
6 *226:5 0.000175489

*RES
1 *226:4 *813:QN 1.01999998
2 *226:4 *226:5 0.1435
3 *226:3 *226:5 0.717499
4 *226:2 *226:3 0.286999
5 *455:A *226:2 1.01999998
*END

*D_NET *227 0.000691503

*CONN
*I *812:QN O *C 42.435 80.565 *L 0 *D DFFRX1M
*I *544:A I *C 42.845 77.285 *L 0.0017 *D CLKBUFX2M

*CAP
1 *812:QN 5.60286e-05
2 *544:A 5.60286e-05
3 *227:2 0.0002087
4 *227:3 0.00021613
5 *227:4 7.35901e-05
6 *227:5 8.10203e-05

*RES
1 *227:4 *544:A 1.01999998
2 *227:4 *227:5 0.286999
3 *227:2 *812:QN 1.01999998
4 *227:3 *227:5 0.1435
5 *227:3 *227:2 0.860999
*END

*D_NET *228 0.000425999

*CONN
*I *809:QN O *C 43.255 30.955 *L 0 *D DFFRX2M
*I *543:A I *C 42.845 28.495 *L 0.00166 *D BUFX2M

*CAP
1 *809:QN 5.60298e-05
2 *543:A 5.60298e-05
3 *228:2 0.00011248
4 *228:3 0.00010505
5 *228:4 5.19191e-05
6 *228:5 4.44891e-05

*RES
1 *228:5 *809:QN 1.01999998
2 *228:4 *228:5 0.1435
3 *228:2 *228:4 0.1435
4 *228:3 *228:2 0.717499
5 *543:A *228:3 1.01999998
*END

*D_NET *229 0.00126564

*CONN
*I *799:Y O *C 60.065 57.605 *L 0 *D CLKINVX2M
*I *738:A I *C 58.015 57.605 *L 0.00292 *D OR2X4M

*CAP
1 *799:Y 2.51519e-05
2 *738:A 5.60292e-05
3 *229:2 0.000339862109
4 *229:3 0.00024151
5 *229:4 6.38807e-05
6 *229:5 0.000220429
7 *229:6 0.000318781

*RES
1 *229:4 *799:Y 0.274107
2 *229:5 *229:4 1.02
3 *229:5 *229:6 1.148
4 *229:2 *229:6 0.574
5 *229:3 *229:2 1.148
6 *738:A *229:3 1.02
*END

*D_NET *230 0.00065962

*CONN
*I *808:QN O *C 39.155 13.735 *L 0 *D DFFRX1M
*I *542:A I *C 37.925 17.015 *L 0.00166 *D BUFX2M

*CAP
1 *808:QN 5.60302e-05
2 *542:A 5.60302e-05
3 *230:2 0.00018282
4 *230:3 0.00025085
5 *230:4 0.00011389

*RES
1 *230:2 *542:A 1.02
2 *230:4 *808:QN 1.02
3 *230:3 *230:2 1.148
4 *230:3 *230:4 0.4305
*END

*D_NET *231 0.000494997

*CONN
*I *807:QN O *C 28.085 13.735 *L 0 *D DFFRX2M
*I *650:C I *C 27.265 17.015 *L 0.00219 *D OR3X2M

*CAP
1 *807:QN 5.60289e-05
2 *650:C 5.60289e-05
3 *231:2 0.00014698
4 *231:3 0.000109189
5 *231:4 4.44898e-05
6 *231:5 8.22805e-05

*RES
1 *231:4 *807:QN 1.01999998
2 *231:3 *650:C 1.01999998
3 *231:4 *231:5 0.1435
4 *231:2 *231:3 0.573999
5 *231:2 *231:5 0.286999
*END

*D_NET *232 0.000719162

*CONN
*I *794:Y O *C 71.955 63.755 *L 0 *D NOR2X4M
*I *731:C I *C 72.775 60.065 *L 0.00188 *D AND3X2M

*CAP
1 *794:Y 5.60301e-05
2 *731:C 5.60301e-05
3 *232:2 0.00017959
4 *232:3 0.0002173
5 *232:4 0.000123957
6 *232:5 8.62502e-05

*RES
1 *232:5 *794:Y 1.01999998
2 *232:4 *232:5 0.430499
3 *232:3 *232:4 0.286999
4 *232:2 *232:3 0.860999
5 *731:C *232:2 1.01999998
*END

*D_NET *233 0.000464698

*CONN
*I *793:Y O *C 71.955 77.695 *L 0 *D NAND2X1M
*I *766:A I *C 70.725 77.285 *L 0.0022 *D OR3X2M

*CAP
1 *793:Y 5.60302e-05
2 *766:A 5.60302e-05
3 *233:2 6.16686e-05
4 *233:3 0.0001297
5 *233:4 4.66196e-05
6 *233:5 0.000114649

*RES
1 *233:4 *793:Y 1.01999998
2 *233:4 *233:5 0.1435
3 *233:3 *233:5 0.430499
4 *233:2 *233:3 0.286999
5 *766:A *233:2 1.01999998
*END

*D_NET *234 0.000911243

*CONN
*I *817:QN O *C 50.635 11.685 *L 0 *D DFFRX2M
*I *541:A I *C 48.995 17.015 *L 0.00166 *D BUFX2M

*CAP
1 *817:QN 5.60331e-05
2 *541:A 5.60331e-05
3 *234:2 0.000252189434
4 *234:3 0.000153842
5 *234:4 0.0001474
6 *234:5 0.000245751

*RES
1 *234:4 *817:QN 1.01999998
2 *234:3 *541:A 1.01999998
3 *234:4 *234:5 1.0045
4 *234:2 *234:3 0.860999
5 *234:2 *234:5 0.573999
*END

*D_NET *235 0.00247229

*CONN
*I *821:B I *C 51.045 25.625 *L 0.00611 *D NOR2BX4M
*I *806:Y O *C 46.945 20.295 *L 0 *D CLKINVX4M
*I *612:B I *C 45.305 19.885 *L 0.00291 *D NAND2BX2M
*I *599:A1 I *C 44.075 17.015 *L 0.00595 *D OAI21X4M

*CAP
1 *821:B 5.60318e-05
2 *806:Y 5.60318e-05
3 *612:B 5.60318e-05
4 *599:A1 5.60318e-05
5 *235:4 0.000159902
6 *235:5 0.00017534
7 *235:6 9.47786e-05
8 *235:7 0.000218951
9 *235:8 0.00014352
10 *235:9 7.549e-05
11 *235:10 0.000282658
12 *235:11 0.000282658
13 *235:12 4.8751e-05
14 *235:13 0.00030047
15 *235:14 0.00030047
16 *235:15 0.000165179

*RES
1 *235:10 *821:B 1.02
2 *235:11 *235:10 1.148
3 *235:13 *235:11 1.02
4 *235:14 *235:13 1.43499994
5 *235:12 *806:Y 1.02
6 *235:6 *235:14 1.02
7 *235:12 *235:7 0.143509
8 *235:7 *235:6 0.573991
9 *235:15 *235:7 0.573991
10 *235:4 *612:B 1.02
11 *235:4 *235:15 0.286996
12 *235:5 *235:4 0.7175
13 *235:8 *235:5 0.430504
14 *235:9 *235:8 0.286996
15 *599:A1 *235:9 1.02
*END

*D_NET *236 0.00153321

*CONN
*I *800:Y O *C 29.725 25.215 *L 0 *D CLKINVX2M
*I *787:B I *C 33.825 28.495 *L 0.00294 *D NAND2X2M
*I *777:B I *C 30.955 25.625 *L 0.00288 *D AND3X4M

*CAP
1 *800:Y 5.60303e-05
2 *787:B 5.60303e-05
3 *777:B 5.60303e-05
4 *236:3 9.78991e-05
5 *236:4 9.78991e-05
6 *236:5 0.00018017
7 *236:6 0.00018017
8 *236:7 0.000113261
9 *236:8 0.000120721
10 *236:9 0.000154053
11 *236:10 0.00025371
12 *236:11 0.000121379
13 *236:13 4.58486e-05

*RES
1 *236:5 *787:B 1.01999998
2 *236:6 *236:5 0.573999
3 *236:7 *236:6 1.01999998
4 *236:4 *777:B 1.01999998
5 *236:8 *236:7 0.430499
6 *236:4 *236:3 0.286999
7 *236:9 *236:8 0.1435
8 *236:10 *236:3 1.01999998
9 *236:10 *236:9 0.573999
10 *236:11 *236:10 0.430499
11 *236:13 *236:11 1.01999998
12 *236:13 *800:Y 1.01999998
13 *236:12 *236:13 0.0350034
*END

*D_NET *237 0.0053486

*CONN
*I *803:Y O *C 19.475 30.955 *L 0 *D INVX4M
*I *777:A I *C 30.135 25.625 *L 0.00289 *D AND3X4M
*I *759:A I *C 19.065 25.625 *L 0.00317 *D NAND2X2M
*I *664:B I *C 30.545 22.755 *L 0.00183 *D AND2X2M
*I *531:A I *C 30.135 34.235 *L 0.00276 *D BUFX4M

*CAP
1 *803:Y 2.5154e-05
2 *777:A 5.60292e-05
3 *759:A 5.60292e-05
4 *664:B 5.60292e-05
5 *531:A 5.60292e-05
6 *237:5 0.000535711
7 *237:6 0.000136615
8 *237:7 6.31899e-05
9 *237:8 5.57852e-05
10 *237:9 7.74869e-05
11 *237:10 0.000154657
12 *237:11 9.87983e-05
13 *237:12 0.000349667
14 *237:13 0.000342238
15 *237:14 0.000141201
16 *237:15 0.00079945
17 *237:16 0.000672509
18 *237:17 6.38852e-05
19 *237:18 0.000413345
20 *237:19 0.000317206
21 *237:20 0.000408282
22 *237:21 4.66239e-05
23 *237:22 0.000145129
24 *237:7 *26:9 4.08e-05
25 *237:8 *26:8 4.08e-05
26 *237:9 *26:7 5.989e-05
27 *237:10 *26:6 5.989e-05
28 *237:10 *26:9 1.388e-05
29 *237:11 *26:8 1.388e-05
30 *237:12 *26:7 2.423e-05
31 *237:13 *26:6 2.42299974e-05

*RES
1 *237:21 *531:A 1.02002
2 *237:21 *237:22 0.143518
3 *237:8 *664:B 1.02002
4 *237:20 *237:22 0.574018
5 *237:8 *237:7 0.286982
6 *237:19 *237:20 1.722
7 *237:11 *237:7 0.143518
8 *237:9 *777:A 1.02002
9 *237:19 *237:12 0.143518
10 *237:11 *237:10 0.286982
11 *237:10 *237:9 0.4305
12 *237:13 *237:12 1.86552
13 *237:14 *237:10 1.02002
14 *237:17 *803:Y 0.274107
15 *237:15 *237:13 1.02002
16 *237:15 *237:14 0.4305
17 *237:18 *237:17 1.02002
18 *237:16 *237:15 3.44400001
19 *237:5 *759:A 1.02002
20 *237:5 *237:18 1.86552
21 *237:6 *237:16 1.02002
22 *237:6 *237:5 0.4305
*END

*D_NET *238 0.00178599

*CONN
*I *785:Y O *C 36.285 63.345 *L 0 *D INVXLM
*I *643:A1N I *C 29.725 59.245 *L 0.000978 *D OAI2BB1X1M

*CAP
1 *785:Y 5.60333e-05
2 *643:A1N 5.60333e-05
3 *238:2 0.00015066
4 *238:3 0.00015066
5 *238:4 6.97082e-05
6 *238:5 6.97082e-05
7 *238:6 0.000119709
8 *238:7 0.0003688
9 *238:8 0.000127171
10 *238:9 0.0003688
11 *238:10 0.000128083
12 *238:11 0.00012062

*RES
1 *238:4 *785:Y 1.02
2 *238:5 *238:4 0.286996
3 *238:11 *238:5 1.02
4 *238:10 *238:11 0.430504
5 *238:9 *238:10 0.143509
6 *238:7 *238:9 1.43499994
7 *238:7 *238:8 0.143509
8 *238:6 *238:8 0.430504
9 *238:2 *238:6 1.02
10 *238:3 *238:2 0.861009
11 *643:A1N *238:3 1.02
*END

*D_NET *239 0.00058516

*CONN
*I *784:Y O *C 66.215 36.285 *L 0 *D CLKXOR2X2M
*I *732:C I *C 68.675 37.515 *L 0.00266 *D XNOR3X1M

*CAP
1 *784:Y 2.51511e-05
2 *732:C 5.60305e-05
3 *239:4 6.388e-05
4 *239:5 4.58499e-05
5 *239:6 0.0001742
6 *239:7 4.58499e-05
7 *239:8 0.0001742

*RES
1 *239:7 *732:C 1.01999998
2 *239:3 *239:7 0.204277
3 *239:8 *239:7 1.01999998
4 *239:6 *239:8 0.717499
5 *784:Y *239:4 0.274113
6 *239:5 *239:6 1.01999998
7 *239:5 *239:4 1.01999998
8 *239:2 *239:5 0.204277
*END

*D_NET *240 0.00061548

*CONN
*I *822:C I *C 68.265 20.705 *L 0.00285 *D XNOR3X2M
*I *783:Y O *C 68.675 17.835 *L 0 *D CLKXOR2X2M

*CAP
1 *822:C 5.60307e-05
2 *783:Y 5.60307e-05
3 *240:2 0.00016159
4 *240:3 0.00013123
5 *240:4 5.32888e-05
6 *240:5 5.97588e-05
7 *240:6 9.75507e-05

*RES
1 *240:4 *822:C 1.01999998
2 *240:5 *783:Y 1.01999998
3 *240:3 *240:4 0.1435
4 *240:5 *240:6 0.1435
5 *240:2 *240:3 0.860999
6 *240:2 *240:6 0.286999
*END

*D_NET *241 0.00043356

*CONN
*I *788:Y O *C 44.485 52.275 *L 0 *D NOR2X4M
*I *530:A I *C 45.305 51.455 *L 0.00276 *D BUFX4M

*CAP
1 *788:Y 5.60302e-05
2 *530:A 5.60302e-05
3 *241:2 0.00013782
4 *241:3 0.000100029
5 *241:4 8.36489e-05

*RES
1 *241:3 *530:A 1.01999998
2 *241:3 *241:2 0.286999
3 *241:4 *241:2 0.286999
4 *788:Y *241:4 1.01999998
*END

*D_NET *242 0.0014265

*CONN
*I *782:Y O *C 28.495 46.535 *L 0 *D NAND3X2M
*I *758:AN I *C 36.285 45.715 *L 0.00159 *D NAND2BX2M

*CAP
1 *782:Y 5.60316e-05
2 *758:AN 0.000148838
3 *242:2 7.03165e-05
4 *242:3 7.03165e-05
5 *242:4 0.00042708
6 *242:5 0.00042708
7 *242:7 4.58524e-05
8 *242:8 0.000180979

*RES
1 *242:8 *758:AN 1.64469
2 *242:2 *242:8 1.02
3 *242:3 *242:2 0.286987
4 *242:4 *242:3 1.02
5 *242:5 *242:4 1.86549997
6 *242:7 *242:5 1.02
7 *242:7 *782:Y 1.02
8 *242:6 *242:7 0.204267
*END

*D_NET *243 0.000365599

*CONN
*I *781:Y O *C 14.965 82.205 *L 0 *D CLKXOR2X2M
*I *465:A I *C 15.785 83.025 *L 0.00166 *D BUFX2M

*CAP
1 *781:Y 5.60294e-05
2 *465:A 5.60294e-05
3 *243:2 6.60498e-05
4 *243:3 0.00010384
5 *243:4 8.36503e-05

*RES
1 *243:4 *465:A 1.01999998
2 *243:3 *243:4 0.286999
3 *243:2 *243:3 0.286999
4 *781:Y *243:2 1.01999998
*END

*D_NET *244 0.000666162

*CONN
*I *780:Y O *C 21.115 46.125 *L 0 *D NAND3BX4M
*I *756:B0N I *C 19.065 44.895 *L 0.0018 *D AOI21BX2M

*CAP
1 *780:Y 5.60304e-05
2 *756:B0N 5.60304e-05
3 *244:2 7.78597e-05
4 *244:3 0.000206730918
5 *244:4 0.000199188
6 *244:5 7.03204e-05

*RES
1 *244:5 *780:Y 1.01999998
2 *244:2 *756:B0N 1.01999998
3 *244:4 *244:5 0.286999
4 *244:3 *244:2 0.286999
5 *244:3 *244:4 0.717499
*END

*D_NET *245 0.000430939

*CONN
*I *790:Y O *C 45.715 29.315 *L 0 *D NOR2X4M
*I *529:A I *C 46.535 28.495 *L 0.0017 *D CLKBUFX2M

*CAP
1 *790:Y 5.60288e-05
2 *529:A 5.60288e-05
3 *245:2 8.36495e-05
4 *245:3 9.872e-05
5 *245:4 0.00013651

*RES
1 *245:3 *529:A 1.01999998
2 *245:3 *245:4 0.286999
3 *245:2 *245:4 0.286999
4 *790:Y *245:2 1.01999998
*END

*D_NET *246 0.001504

*CONN
*I *805:Y O *C 53.915 74.825 *L 0 *D INVX2M
*I *776:C I *C 58.835 74.825 *L 0.00464 *D OR3X4M
*I *713:A0N I *C 53.505 72.365 *L 0.00141 *D OAI2BB1X2M

*CAP
1 *805:Y 5.60276e-05
2 *776:C 5.60276e-05
3 *713:A0N 5.60276e-05
4 *246:3 7.43104e-05
5 *246:4 0.00019546
6 *246:5 0.000135391
7 *246:6 0.00032339
8 *246:7 0.00032339
9 *246:9 4.58524e-05
10 *246:6 *111:37 0.00011906
11 *246:7 *111:38 0.000119059999

*RES
1 *246:5 *713:A0N 1.01999
2 *246:5 *246:4 0.573991
3 *246:4 *805:Y 1.01999
4 *246:4 *246:3 0.287009
5 *246:7 *246:3 1.01999
6 *246:7 *246:6 1.722
7 *246:9 *776:C 1.01999
8 *246:9 *246:6 1.01999
9 *246:8 *246:9 0.204267
*END

*D_NET *247 0.000758381

*CONN
*I *810:QN O *C 56.785 69.085 *L 0 *D DFFRX1M
*I *540:A I *C 57.195 65.805 *L 0.00166 *D BUFX2M

*CAP
1 *810:QN 5.60289e-05
2 *540:A 5.60289e-05
3 *247:2 0.000186190137
4 *247:3 0.000178761
5 *247:4 0.000136971
6 *247:5 0.000144401

*RES
1 *247:4 *540:A 1.01999998
2 *247:4 *247:5 0.573999
3 *247:3 *810:QN 1.01999998
4 *247:2 *247:5 0.1435
5 *247:2 *247:3 0.573999
*END

*D_NET *248 0.000850409

*CONN
*I *816:QN O *C 59.245 80.565 *L 0 *D DFFRX1M
*I *463:A I *C 61.295 83.025 *L 0.00166 *D BUFX2M

*CAP
1 *816:QN 5.603e-05
2 *463:A 5.603e-05
3 *248:2 0.000189499238
4 *248:3 0.000189499238
5 *248:5 0.000156749
6 *248:6 4.58517e-05
7 *248:7 0.000156749

*RES
1 *248:3 *816:QN 1.01999998
2 *248:3 *248:2 0.860999
3 *248:5 *248:2 1.01999998
4 *248:5 *248:7 0.717499
5 *248:6 *463:A 1.01999998
6 *248:6 *248:7 1.01999998
7 *248:4 *248:6 0.204277
*END

*D_NET *249 4.964e-05

*CONN
*I *775:Y O *C 39.565 71.545 *L 0 *D AO22X2M
*I *676:C I *C 39.975 71.545 *L 0.00292 *D NAND3X2M

*CAP
1 *775:Y 2.482e-05
2 *676:C 2.482e-05

*RES
1 *775:Y *676:C 0.274114
*END

*D_NET *250 0.00127118

*CONN
*I *774:Y O *C 35.875 71.545 *L 0 *D AO22X2M
*I *740:C I *C 34.235 77.695 *L 0.00279 *D MX3X2M

*CAP
1 *774:Y 5.6031e-05
2 *740:C 5.6031e-05
3 *250:2 0.000157441
4 *250:3 0.000218161
5 *250:4 0.000212368
6 *250:5 0.000219800625
7 *250:6 0.0001416
8 *250:7 0.000209749

*RES
1 *250:6 *774:Y 1.01999998
2 *250:6 *250:7 0.430499
3 *250:3 *250:7 0.430499
4 *250:4 *740:C 1.01999998
5 *250:3 *250:2 0.573999
6 *250:5 *250:4 0.860999
7 *250:5 *250:2 0.1435
*END

*D_NET *251 0.00122422

*CONN
*I *773:Y O *C 33.005 74.415 *L 0 *D AO22X2M
*I *739:C I *C 33.415 65.805 *L 0.00187 *D MX3X1M

*CAP
1 *773:Y 5.60308e-05
2 *739:C 5.60308e-05
3 *251:2 0.000213032
4 *251:3 0.000205603
5 *251:4 0.000343052
6 *251:5 0.00035048

*RES
1 *251:4 *739:C 1.01999
2 *251:4 *251:5 1.722
3 *251:3 *773:Y 1.01999
4 *251:2 *251:5 0.143491
5 *251:2 *251:3 1.00449
*END

*D_NET *252 0.000532017

*CONN
*I *581:Y O *C 19.475 68.265 *L 0 *D XNOR2X8M
*I *466:A I *C 23.575 71.545 *L 0.00166 *D BUFX2M

*CAP
1 *581:Y 5.60299e-05
2 *466:A 5.60299e-05
3 *252:2 0.00020998
4 *252:3 0.00020998

*RES
1 *252:3 *466:A 1.02
2 *252:2 *252:3 1.148
3 *581:Y *252:2 1.02
*END

*D_NET *253 0.000481979

*CONN
*I *814:QN O *C 69.905 57.605 *L 0 *D DFFRX1M
*I *538:A I *C 71.135 57.195 *L 0.00235 *D CLKBUFX6M

*CAP
1 *814:QN 5.60283e-05
2 *538:A 5.60283e-05
3 *253:2 0.000116779
4 *253:3 4.87496e-05
5 *253:4 6.81809e-05
6 *253:5 0.00013621

*RES
1 *253:4 *538:A 1.01999998
2 *253:4 *253:5 0.286999
3 *253:2 *253:5 0.430499
4 *253:3 *253:2 0.1435
5 *814:QN *253:3 1.01999998
*END

*D_NET *254 0.000393438

*CONN
*I *796:Y O *C 76.875 52.275 *L 0 *D NOR2X4M
*I *528:A I *C 78.105 54.325 *L 0.00177 *D CLKBUFX4M

*CAP
1 *796:Y 5.60291e-05
2 *528:A 5.60291e-05
3 *254:2 0.00014069
4 *254:3 0.00014069

*RES
1 *254:3 *528:A 1.01999998
2 *254:2 *254:3 0.717499
3 *796:Y *254:2 1.01999998
*END

*D_NET *255 0.00224857

*CONN
*I *791:Y O *C 75.645 50.635 *L 0 *D NAND2X4M
*I *771:A I *C 74.415 57.605 *L 0.00584 *D NOR2X4M
*I *768:AN I *C 77.285 54.325 *L 0.00276 *D NOR2BX4M
*I *745:A0 I *C 76.875 57.195 *L 0.00184 *D AO21X2M

*CAP
1 *791:Y 5.60306e-05
2 *771:A 5.60306e-05
3 *768:AN 5.60306e-05
4 *745:A0 5.60306e-05
5 *255:4 0.00057169
6 *255:5 0.000330758
7 *255:7 0.00021334
8 *255:8 0.000255169
9 *255:9 0.000148124
10 *255:10 0.000140691
11 *255:11 7.19596e-05
12 *255:12 0.00021334
13 *255:13 7.93919e-05

*RES
1 *255:5 *791:Y 1.02
2 *255:8 *771:A 1.02
3 *255:10 *745:A0 1.02
4 *255:5 *255:4 1.29149997
5 *255:4 *255:8 1.148
6 *255:9 *255:10 0.717502
7 *255:7 *255:4 1.02
8 *255:9 *255:13 0.143504
9 *255:7 *255:12 1.00449
10 *255:11 *768:AN 1.02
11 *255:11 *255:13 0.287009
12 *255:11 *255:12 1.02
13 *255:6 *255:11 0.20428
*END

*D_NET *256 0.0013773

*CONN
*I *768:Y O *C 74.825 53.915 *L 0 *D NOR2BX4M
*I *749:D I *C 71.955 48.585 *L 0.00116 *D DFFRQX2M

*CAP
1 *768:Y 5.60304e-05
2 *749:D 5.60304e-05
3 *256:2 7.85198e-05
4 *256:3 7.85198e-05
5 *256:4 0.000174703
6 *256:5 0.000167272
7 *256:6 0.00020419
8 *256:7 0.000182638
9 *256:8 0.000175211
10 *256:9 0.00020419

*RES
1 *256:8 *768:Y 1.02
2 *256:7 *256:8 0.574
3 *256:7 *256:4 0.1435
4 *256:5 *256:4 1.0045
5 *256:9 *256:5 1.02
6 *256:6 *256:9 1.148
7 *256:2 *256:6 1.02
8 *256:3 *256:2 0.287
9 *749:D *256:3 1.02
*END

*D_NET *257 0.00073217

*CONN
*I *823:A0 I *C 34.645 17.015 *L 0.00128 *D AO2B2X2M
*I *767:Y O *C 32.595 17.835 *L 0 *D NOR2X4M

*CAP
1 *823:A0 5.60302e-05
2 *767:Y 2.77801e-05
3 *257:2 0.00022817
4 *257:3 5.99192e-05
5 *257:4 0.00012982
6 *257:5 0.0001644
7 *257:6 6.60504e-05

*RES
1 *257:6 *823:A0 1.01999998
2 *257:5 *257:6 0.286999
3 *257:2 *257:5 0.573999
4 *257:2 *257:4 0.573999
5 *257:3 *257:4 1.01999998
6 *767:Y *257:3 0.274113
*END

*D_NET *258 0.000919467

*CONN
*I *821:AN I *C 48.995 25.625 *L 0.00276 *D NOR2BX4M
*I *786:Y O *C 46.125 24.805 *L 0 *D CLKAND2X4M
*I *764:A I *C 48.995 28.495 *L 0.00317 *D NAND2X2M

*CAP
1 *821:AN 5.60299e-05
2 *786:Y 9.92175e-05
3 *764:A 5.60299e-05
4 *258:3 0.000131359
5 *258:4 4.66178e-05
6 *258:5 0.00011465
7 *258:6 4.87512e-05
8 *258:7 0.00023033
9 *258:8 0.000136479

*RES
1 *258:6 *821:AN 1.02
2 *258:8 *764:A 1.02
3 *258:6 *258:7 0.143498
4 *258:7 *258:8 0.861007
5 *258:5 *258:7 0.430495
6 *258:4 *258:5 0.143498
7 *258:3 *258:4 1.02
8 *786:Y *258:3 1.09645712
*END

*D_NET *259 0.00247817

*CONN
*I *766:Y O *C 68.675 76.465 *L 0 *D OR3X2M
*I *746:B I *C 68.675 62.935 *L 0.00295 *D NOR2BX2M

*CAP
1 *766:Y 8.37696e-05
2 *746:B 5.60336e-05
3 *259:2 0.000289303
4 *259:3 0.000258981
5 *259:4 0.00033767
6 *259:5 0.000115911
7 *259:6 0.000330281
8 *259:7 0.000242081
9 *259:8 0.000242081
10 *259:9 8.21002e-05
11 *259:10 0.000119806
12 *259:8 *106:12 0.00010002
13 *259:7 *106:10 0.00010002
14 *259:10 *106:10 2.156e-05
15 *259:9 *106:11 2.156e-05
16 *259:8 *106:10 3.85e-05
17 *259:7 *106:11 3.85000046e-05

*RES
1 *259:9 *746:B 1.02
2 *259:5 *766:Y 0.82234
3 *259:9 *259:10 0.7175
4 *259:6 *259:5 1.02
5 *259:7 *259:10 0.286996
6 *259:4 *259:6 1.43499994
7 *259:7 *259:8 1.29149
8 *259:3 *259:4 0.143509
9 *259:2 *259:8 0.286996
10 *259:2 *259:3 1.29149
*END

*D_NET *260 0.000714558

*CONN
*I *801:Y O *C 44.895 63.345 *L 0 *D INVX4M
*I *765:B I *C 46.535 60.065 *L 0.00607 *D NOR2X4M
*I *755:B I *C 45.305 62.935 *L 0.00294 *D NAND2X2M

*CAP
1 *801:Y 2.48202e-05
2 *765:B 5.60306e-05
3 *755:B 6.35481e-05
4 *260:3 0.00021476
5 *260:4 0.000146611
6 *260:5 7.03185e-05
7 *260:6 0.000138471

*RES
1 *260:5 *765:B 1.01999998
2 *260:5 *260:6 0.286999
3 *260:3 *260:6 0.430499
4 *260:3 *260:4 0.717499
5 *755:B *260:4 1.01999998
6 *801:Y *755:B 0.274113
*END

*D_NET *261 0.00248403

*CONN
*I *765:Y O *C 46.535 59.245 *L 0 *D NOR2X4M
*I *595:D I *C 46.535 49.405 *L 0.00103 *D SDFFRQX2M

*CAP
1 *765:Y 5.27285e-05
2 *595:D 5.60315e-05
3 *261:2 0.000254051
4 *261:3 0.000284406
5 *261:4 0.00040764
6 *261:5 0.000369852
7 *261:7 0.000211779
8 *261:8 8.48682e-05
9 *261:9 0.000204352
10 *261:10 8.2007e-05
11 *261:11 8.2007e-05
12 *261:12 9.03607e-05
13 *261:13 9.03607e-05
14 *261:14 8.38668e-05
15 *261:15 4.5849e-05
16 *261:16 8.38668e-05

*RES
1 *261:8 *765:Y 0.82234
2 *261:9 *261:8 1.02
3 *261:7 *261:9 0.861
4 *261:7 *261:11 0.1435
5 *261:10 *261:11 0.4305
6 *261:10 *261:13 0.1435
7 *261:12 *261:13 0.287
8 *261:12 *261:2 0.1435
9 *261:3 *261:2 0.861
10 *261:3 *261:4 0.287
11 *261:5 *261:4 1.148
12 *261:14 *261:5 1.02
13 *261:14 *261:16 0.287
14 *261:15 *595:D 1.02
15 *261:15 *261:16 1.02
16 *261:6 *261:15 0.204267
*END

*D_NET *262 0.00054352

*CONN
*I *760:Y O *C 35.465 40.385 *L 0 *D NOR2BX4M
*I *733:B0 I *C 33.825 39.975 *L 0.0031 *D OA22X4M

*CAP
1 *760:Y 5.60292e-05
2 *733:B0 5.60292e-05
3 *262:2 0.00016534
4 *262:3 6.68298e-05
5 *262:4 0.000148901
6 *262:5 5.03904e-05

*RES
1 *262:5 *760:Y 1.01999998
2 *262:3 *733:B0 1.01999998
3 *262:4 *262:5 0.1435
4 *262:2 *262:3 0.286999
5 *262:2 *262:4 0.573999
*END

*D_NET *263 0.00707499

*CONN
*I *826:B0N I *C 40.795 62.935 *L 0.00284 *D OAI21BX4M
*I *770:Y O *C 34.235 60.065 *L 0 *D AND2X6M
*I *753:A I *C 45.715 68.675 *L 0.00313 *D NAND3X2M
*I *706:A0N I *C 49.405 65.805 *L 0.00234 *D OAI2BB1X4M
*I *682:B I *C 36.285 74.825 *L 0.003 *D NAND3X2M
*I *680:C I *C 46.125 71.545 *L 0.00292 *D NAND3X2M
*I *676:B I *C 40.795 71.135 *L 0.003 *D NAND3X2M

*CAP
1 *826:B0N 5.60289e-05
2 *770:Y 5.60289e-05
3 *753:A 5.60289e-05
4 *706:A0N 5.60289e-05
5 *682:B 5.60289e-05
6 *680:C 5.60289e-05
7 *676:B 5.60289e-05
8 *263:7 0.000419277
9 *263:8 0.000419277
10 *263:9 0.00041481
11 *263:10 0.000239073
12 *263:11 0.000378116
13 *263:12 0.000378116
14 *263:13 0.000517582
15 *263:14 0.000517582
16 *263:15 0.000364093
17 *263:16 0.000364093
18 *263:17 7.03215e-05
19 *263:18 0.000185013
20 *263:19 0.000222066
21 *263:20 0.000589098867
22 *263:21 0.000456968
23 *263:22 0.000234705
24 *263:23 4.63297e-05
25 *263:24 0.000242534
26 *263:25 0.000242534
27 *263:26 0.000136364
28 *263:27 0.000102565
29 *263:29 4.58533e-05
30 *263:30 4.44959e-05
31 *263:31 5.19209e-05

*RES
1 *263:8 *770:Y 1.02001
2 *263:30 *753:A 1.02001
3 *263:8 *263:7 2.43950009
4 *263:30 *263:31 0.143498
5 *263:16 *706:A0N 1.02001
6 *263:14 *263:7 1.02001
7 *263:31 *263:26 0.143498
8 *263:17 *680:C 1.02001
9 *263:16 *263:15 1.72201
10 *263:10 *826:B0N 1.02001
11 *263:14 *263:13 2.296
12 *263:26 *263:18 0.573991
13 *263:18 *263:17 0.286996
14 *263:22 *263:15 1.02001
15 *263:10 *263:9 1.43502
16 *263:9 *263:13 1.02001
17 *263:23 *676:B 1.02001
18 *263:20 *263:18 1.02001
19 *263:20 *263:22 1.14798
20 *263:9 *263:19 1.29152
21 *263:19 *263:23 0.143498
22 *263:21 *263:20 1.86551
23 *263:21 *263:19 1.02001
24 *263:27 *263:21 0.430493
25 *263:12 *263:27 1.02001
26 *263:12 *263:11 1.43502
27 *263:24 *263:11 1.02001
28 *263:25 *263:24 1.14798
29 *263:29 *682:B 1.02001
30 *263:29 *263:25 1.02001
31 *263:28 *263:29 0.181913
*END

*D_NET *264 0.00276504

*CONN
*I *789:Y O *C 37.105 76.465 *L 0 *D CLKAND2X4M
*I *757:A I *C 42.845 71.545 *L 0.00363 *D CLKXOR2X2M
*I *753:B I *C 45.305 69.085 *L 0.003 *D NAND3X2M

*CAP
1 *789:Y 2.51518e-05
2 *757:A 5.60275e-05
3 *753:B 5.60275e-05
4 *264:3 0.000303858
5 *264:4 0.000141203
6 *264:5 6.38786e-05
7 *264:6 0.000303858
8 *264:7 0.000266504
9 *264:8 0.000148661
10 *264:9 0.00010336
11 *264:10 0.00010336
12 *264:11 0.00042243
13 *264:12 0.000296529
14 *264:13 0.000296529
15 *264:14 0.000177655

*RES
1 *264:12 *753:B 1.02
2 *264:9 *757:A 1.02
3 *264:12 *264:13 1.29149997
4 *264:9 *264:10 0.430493
5 *264:14 *264:13 1.02
6 *264:11 *264:10 1.02
7 *264:11 *264:14 0.861007
8 *264:7 *264:11 1.29149997
9 *264:7 *264:8 0.143504
10 *264:4 *264:8 0.573998
11 *264:3 *264:4 1.02
12 *264:3 *264:6 1.29149997
13 *264:5 *264:6 1.02
14 *789:Y *264:5 0.274121
*END

*D_NET *265 0.00124299

*CONN
*I *757:Y O *C 42.025 70.725 *L 0 *D CLKXOR2X2M
*I *680:B I *C 46.945 71.135 *L 0.003 *D NAND3X2M

*CAP
1 *757:Y 5.60318e-05
2 *680:B 5.60318e-05
3 *265:3 7.10398e-05
4 *265:4 7.10398e-05
5 *265:5 0.0004715
6 *265:6 4.58514e-05
7 *265:7 0.0004715

*RES
1 *265:3 *757:Y 1.01999
2 *265:3 *265:4 0.287009
3 *265:5 *265:4 1.01999
4 *265:5 *265:7 1.722
5 *265:6 *680:B 1.01999
6 *265:6 *265:7 1.01999
7 *265:2 *265:6 0.204267
*END

*D_NET *266 0.000494179

*CONN
*I *756:Y O *C 18.245 46.535 *L 0 *D AOI21BX2M
*I *468:A I *C 18.655 42.845 *L 0.00276 *D BUFX4M

*CAP
1 *756:Y 5.60292e-05
2 *468:A 5.60292e-05
3 *266:2 0.000111559717
4 *266:3 0.000104129
5 *266:4 7.95004e-05
6 *266:5 8.69292e-05

*RES
1 *266:4 *468:A 1.01999998
2 *266:4 *266:5 0.430499
3 *266:3 *756:Y 1.01999998
4 *266:2 *266:5 0.1435
5 *266:2 *266:3 0.286999
*END

*D_NET *267 4.964e-05

*CONN
*I *762:Y O *C 33.415 36.285 *L 0 *D NOR2X4M
*I *518:A I *C 31.365 37.105 *L 0.00276 *D BUFX4M

*CAP
1 *762:Y 2.482e-05
2 *518:A 2.482e-05

*RES
1 *518:A *762:Y 0.274114
*END

*D_NET *268 0.000348301

*CONN
*I *753:Y O *C 46.125 69.495 *L 0 *D NAND3X2M
*I *517:A I *C 46.945 68.675 *L 0.00166 *D BUFX2M

*CAP
1 *753:Y 5.60304e-05
2 *517:A 5.60304e-05
3 *268:2 8.36498e-05
4 *268:3 9.519e-05
5 *268:4 5.74001e-05

*RES
1 *268:4 *517:A 1.01999998
2 *268:3 *268:4 0.286999
3 *268:2 *268:3 0.286999
4 *753:Y *268:2 1.01999998
*END

*D_NET *269 0.00124812

*CONN
*I *752:Y O *C 50.225 36.695 *L 0 *D INVXLM
*I *687:A0N I *C 46.535 33.415 *L 0.00141 *D OAI2BB1X2M

*CAP
1 *752:Y 5.60302e-05
2 *687:A0N 5.60302e-05
3 *269:2 0.000172049
4 *269:3 0.000172049
5 *269:4 8.78768e-05
6 *269:5 8.78768e-05
7 *269:6 0.0003081
8 *269:7 0.0003081

*RES
1 *269:4 *752:Y 1.02
2 *269:5 *269:4 0.287009
3 *269:7 *269:5 1.02
4 *269:6 *269:7 1.29149997
5 *269:2 *269:6 1.02
6 *269:3 *269:2 0.861007
7 *687:A0N *269:3 1.02
*END

*D_NET *270 0.000557271

*CONN
*I *758:Y O *C 37.515 44.895 *L 0 *D NAND2BX2M
*I *516:A I *C 38.745 42.845 *L 0.00276 *D BUFX4M

*CAP
1 *758:Y 5.02888e-05
2 *516:A 5.60301e-05
3 *270:2 0.00018426
4 *270:3 8.24313e-05
5 *270:4 0.00018426

*RES
1 *270:2 *516:A 1.01999998
2 *270:2 *270:4 0.860999
3 *270:3 *270:4 1.01999998
4 *758:Y *270:3 0.548225
*END

*D_NET *271 0.000658776

*CONN
*I *787:Y O *C 34.645 29.315 *L 0 *D NAND2X2M
*I *527:A I *C 35.875 31.365 *L 0.00499 *D BUFX8M

*CAP
1 *787:Y 5.60295e-05
2 *527:A 5.60295e-05
3 *271:2 0.000103208
4 *271:3 0.000171359531
5 *271:4 0.000170149
6 *271:5 0.000102

*RES
1 *271:5 *527:A 1.01999998
2 *271:4 *271:5 0.430499
3 *271:3 *271:4 0.430499
4 *271:2 *271:3 0.286999
5 *787:Y *271:2 1.01999998
*END

*D_NET *272 0.00145846

*CONN
*I *747:Y O *C 37.105 29.315 *L 0 *D OR2X2M
*I *626:A0 I *C 29.315 28.495 *L 0.00567 *D OAI21X4M

*CAP
1 *747:Y 5.60286e-05
2 *626:A0 5.60286e-05
3 *272:2 0.00035942
4 *272:3 0.00035942
5 *272:4 0.000124781
6 *272:5 0.000117322
7 *272:8 4.58496e-05
8 *272:9 0.000150607
9 *272:10 4.58496e-05
10 *272:11 0.000143148

*RES
1 *272:7 *272:10 0.204273
2 *272:10 *747:Y 1.01999
3 *272:11 *272:10 1.01999
4 *272:9 *272:11 0.573993
5 *272:2 *272:9 0.143504
6 *272:3 *272:2 1.57850003
7 *272:3 *272:4 0.143504
8 *272:5 *272:4 0.430489
9 *272:8 *626:A0 1.01999
10 *272:8 *272:5 1.01999
11 *272:6 *272:8 0.204273
*END

*D_NET *273 0.000329859

*CONN
*I *746:Y O *C 69.495 62.115 *L 0 *D NOR2BX2M
*I *526:A I *C 70.315 62.935 *L 0.00166 *D BUFX2M

*CAP
1 *746:Y 5.6029e-05
2 *526:A 5.6029e-05
3 *273:2 4.82604e-05
4 *273:3 8.59698828e-05
5 *273:4 8.35706e-05

*RES
1 *273:4 *526:A 1.01999998
2 *273:2 *746:Y 1.01999998
3 *273:3 *273:4 0.286999
4 *273:3 *273:2 0.1435
*END

*D_NET *274 0.000372821

*CONN
*I *771:Y O *C 75.235 58.015 *L 0 *D NOR2X4M
*I *525:A I *C 75.235 60.065 *L 0.00276 *D BUFX4M

*CAP
1 *771:Y 5.60315e-05
2 *525:A 5.60315e-05
3 *274:2 0.00013038
4 *274:3 0.00013038

*RES
1 *274:3 *525:A 1.01999998
2 *274:2 *274:3 0.717499
3 *771:Y *274:2 1.01999998
*END

*D_NET *275 0.00250472

*CONN
*I *745:Y O *C 78.515 58.015 *L 0 *D AO21X2M
*I *428:A I *C 64.985 62.935 *L 0.00166 *D BUFX2M

*CAP
1 *745:Y 5.60347e-05
2 *428:A 5.60347e-05
3 *275:2 0.00021696
4 *275:3 0.00021696
5 *275:4 7.934e-05
6 *275:5 7.934e-05
7 *275:6 0.0004277
8 *275:7 0.0004277
9 *275:8 0.000186071
10 *275:9 0.000178611
11 *275:10 0.000218285
12 *275:11 7.54438e-05
13 *275:12 0.000218285
14 *275:13 6.79778e-05

*RES
1 *275:5 *745:Y 1.02001
2 *275:5 *275:4 0.286996
3 *275:13 *275:4 1.02001
4 *275:11 *275:13 0.286996
5 *275:11 *275:12 0.143498
6 *275:10 *275:12 1.00448
7 *275:6 *275:10 0.143498
8 *275:7 *275:6 2.43950009
9 *275:7 *275:8 0.143498
10 *275:2 *428:A 1.02001
11 *275:9 *275:8 1.00448
12 *275:3 *275:2 1.29152
13 *275:3 *275:9 1.02001
*END

*D_NET *276 0.0036365

*CONN
*I *776:Y O *C 62.115 74.415 *L 0 *D OR3X4M
*I *748:AN I *C 55.145 62.935 *L 0.00159 *D NAND3BX2M
*I *744:A I *C 56.785 63.345 *L 0.00584 *D NOR2X4M
*I *709:A1N I *C 54.735 69.085 *L 0.00131 *D OAI2BB1X2M

*CAP
1 *776:Y 5.60356e-05
2 *748:AN 5.60356e-05
3 *744:A 5.60356e-05
4 *709:A1N 5.60356e-05
5 *276:4 0.000235156
6 *276:5 0.000235156
7 *276:6 0.000106656
8 *276:7 0.000106656
9 *276:8 4.66174e-05
10 *276:9 5.40481e-05
11 *276:10 0.00030671
12 *276:11 0.000418991
13 *276:12 0.000126541
14 *276:14 4.4493e-05
15 *276:15 7.47446e-05
16 *276:16 5.19146e-05
17 *276:17 4.58515e-05
18 *276:18 0.000590125
19 *276:19 0.00059751
20 *276:20 0.000189296
21 *276:21 0.000181911

*RES
1 *276:8 *709:A1N 1.01998
2 *276:9 *276:8 0.143511
3 *276:9 *276:6 0.143511
4 *276:7 *276:6 0.717509
5 *276:4 *276:7 0.143511
6 *276:21 *776:Y 1.01998
7 *276:5 *276:4 1.00448
8 *276:20 *276:21 0.86102
9 *276:14 *748:AN 1.01998
10 *276:5 *276:16 0.143511
11 *276:19 *276:20 0.143511
12 *276:14 *276:15 0.143511
13 *276:15 *276:16 0.143511
14 *276:18 *276:19 3.01349998
15 *276:12 *276:15 1.01998
16 *276:10 *276:18 1.01998
17 *276:12 *276:11 0.573998
18 *276:11 *276:10 1.72199
19 *276:17 *744:A 1.01998
20 *276:17 *276:11 1.01998
21 *276:13 *276:17 0.204254
*END

*D_NET *277 0.000621361

*CONN
*I *744:Y O *C 55.965 63.755 *L 0 *D NOR2X4M
*I *662:A1 I *C 55.145 65.805 *L 0.00197 *D AO22X2M

*CAP
1 *744:Y 5.60302e-05
2 *662:A1 5.60302e-05
3 *277:2 0.00020803
4 *277:3 0.00017024
5 *277:4 4.66215e-05
6 *277:5 8.44119e-05

*RES
1 *277:4 *744:Y 1.01999998
2 *277:3 *662:A1 1.01999998
3 *277:4 *277:5 0.1435
4 *277:2 *277:3 0.573999
5 *277:2 *277:5 0.286999
*END

*D_NET *278 4.964e-05

*CONN
*I *748:Y O *C 53.505 62.525 *L 0 *D NAND3BX2M
*I *515:A I *C 52.685 62.935 *L 0.0017 *D CLKBUFX2M

*CAP
1 *748:Y 2.482e-05
2 *515:A 2.482e-05

*RES
1 *515:A *748:Y 0.274114
*END

*D_NET *279 0.000437499

*CONN
*I *740:Y O *C 35.055 76.465 *L 0 *D MX3X2M
*I *717:AN I *C 35.055 74.415 *L 0.00159 *D NAND2BX2M

*CAP
1 *740:Y 5.60302e-05
2 *717:AN 5.60302e-05
3 *279:2 0.00016272
4 *279:3 0.00016272

*RES
1 *279:3 *740:Y 1.01999998
2 *279:2 *279:3 0.717499
3 *717:AN *279:2 1.01999998
*END

*D_NET *280 0.00020594

*CONN
*I *739:Y O *C 33.825 65.395 *L 0 *D MX3X1M
*I *716:AN I *C 35.465 65.805 *L 0.00159 *D NAND2BX2M

*CAP
1 *739:Y 0.00010297
2 *716:AN 0.00010297

*RES
1 *739:Y *716:AN 1.09646
*END

*D_NET *281 0.000795579

*CONN
*I *820:B I *C 35.465 33.825 *L 0.00207 *D OR2X2M
*I *763:Y O *C 33.825 35.055 *L 0 *D NAND2X2M
*I *514:A I *C 34.645 37.105 *L 0.00166 *D BUFX2M

*CAP
1 *820:B 5.60284e-05
2 *763:Y 5.60284e-05
3 *514:A 5.60284e-05
4 *281:3 4.875e-05
5 *281:4 5.61803e-05
6 *281:5 0.00018431
7 *281:6 0.00011616
8 *281:7 9.21508e-05
9 *281:8 0.000129938

*RES
1 *281:7 *820:B 1.01999998
2 *281:7 *281:8 0.430499
3 *281:6 *514:A 1.01999998
4 *281:5 *281:8 0.286999
5 *281:5 *281:6 0.717499
6 *281:4 *281:5 0.1435
7 *281:3 *281:4 0.1435
8 *763:Y *281:3 1.01999998
*END

*D_NET *282 0.000930591

*CONN
*I *732:Y O *C 68.265 37.925 *L 0 *D XNOR3X1M
*I *524:A I *C 68.675 39.975 *L 0.00166 *D BUFX2M

*CAP
1 *732:Y 5.02908e-05
2 *524:A 5.60295e-05
3 *282:2 8.24316e-05
4 *282:3 0.000240877
5 *282:4 0.00030903
6 *282:5 6.18909e-05
7 *282:6 0.000130044

*RES
1 *282:5 *524:A 1.01999998
2 *282:5 *282:6 0.1435
3 *282:4 *282:6 0.430499
4 *282:3 *282:4 1.0045
5 *282:2 *282:3 1.01999998
6 *282:2 *732:Y 0.548225
*END

*D_NET *283 0.00150801

*CONN
*I *769:Y O *C 50.635 55.145 *L 0 *D NAND2BX2M
*I *730:A1N I *C 53.505 59.655 *L 0.00131 *D OAI2BB1X2M
*I *655:D I *C 50.635 57.195 *L 0.00205 *D AND4X2M

*CAP
1 *769:Y 5.60306e-05
2 *730:A1N 5.60306e-05
3 *655:D 5.60306e-05
4 *283:3 0.00015529
5 *283:4 0.00029101
6 *283:5 0.000129881
7 *283:6 0.000122452
8 *283:7 0.00015739
9 *283:8 5.45386e-05
10 *283:9 4.70829e-05
11 *283:11 0.000171942
12 *283:12 4.58529e-05
13 *283:13 0.000164477

*RES
1 *283:6 *769:Y 1.01999998
2 *283:6 *283:5 0.573999
3 *283:7 *283:5 0.1435
4 *283:4 *655:D 1.01999998
5 *283:7 *283:4 0.717499
6 *283:4 *283:3 0.717499
7 *283:9 *283:3 1.01999998
8 *283:9 *283:8 0.1435
9 *283:8 *283:11 0.1435
10 *283:11 *283:13 0.860999
11 *283:12 *730:A1N 1.01999998
12 *283:12 *283:13 1.01999998
13 *283:10 *283:12 0.204277
*END

*D_NET *284 0.00358167

*CONN
*I *777:Y O *C 32.185 24.805 *L 0 *D AND3X4M
*I *736:B I *C 40.795 26.035 *L 0.00188 *D AND3X2M
*I *728:B I *C 41.205 23.165 *L 0.003 *D NAND3X2M
*I *698:B I *C 30.545 19.885 *L 0.00294 *D NAND2X2M

*CAP
1 *777:Y 5.60391e-05
2 *736:B 5.60391e-05
3 *728:B 5.60391e-05
4 *698:B 5.60391e-05
5 *284:4 0.000195743
6 *284:5 0.000158023
7 *284:6 0.000187661
8 *284:7 0.000180274
9 *284:8 6.3529e-05
10 *284:9 6.3529e-05
11 *284:10 7.78642e-05
12 *284:11 8.5251e-05
13 *284:12 0.000207745
14 *284:13 0.000245466
15 *284:14 7.84573e-05
16 *284:15 0.000743784
17 *284:16 0.00084484
18 *284:17 0.000179526
19 *284:20 4.58548e-05

*RES
1 *284:7 *728:B 1.01998
2 *284:5 *698:B 1.01998
3 *284:7 *284:6 0.573998
4 *284:5 *284:4 0.717509
5 *284:6 *284:11 0.143511
6 *284:13 *284:4 0.287022
7 *284:8 *736:B 1.01998
8 *284:11 *284:10 0.287022
9 *284:13 *284:12 1.29151
10 *284:19 *284:9 0.0675481
11 *284:9 *284:8 0.143511
12 *284:14 *284:10 1.01998
13 *284:17 *284:12 1.01998
14 *284:15 *284:9 1.01998
15 *284:15 *284:14 0.287022
16 *284:17 *284:16 0.86102
17 *284:16 *284:15 3.01349998
18 *284:20 *284:16 1.01998
19 *284:20 *777:Y 1.01998
20 *284:18 *284:20 0.204254
*END

*D_NET *285 0.00295139

*CONN
*I *751:Y O *C 37.515 31.775 *L 0 *D CLKINVX4M
*I *737:A I *C 37.925 28.495 *L 0.00317 *D NAND2X2M
*I *736:A I *C 39.975 25.625 *L 0.00181 *D AND3X2M
*I *729:B I *C 39.155 31.365 *L 0.00291 *D NAND2BX2M
*I *728:A I *C 41.615 22.755 *L 0.00313 *D NAND3X2M
*I *727:A I *C 37.925 25.625 *L 0.00289 *D AND3X4M

*CAP
1 *751:Y 5.60251e-05
2 *737:A 5.60251e-05
3 *736:A 5.60251e-05
4 *729:B 5.60251e-05
5 *728:A 5.60251e-05
6 *727:A 5.60251e-05
7 *285:6 0.000208
8 *285:7 0.000215386
9 *285:8 0.000295941
10 *285:9 0.00042461
11 *285:10 0.000236411
12 *285:11 0.000236411
13 *285:12 0.000100414
14 *285:13 0.000270284
15 *285:14 0.000139282
16 *285:15 0.000108027
17 *285:16 0.000132297
18 *285:17 0.000113929
19 *285:18 8.59716e-05
20 *285:19 4.82566e-05

*RES
1 *285:19 *728:A 1.01999
2 *285:18 *285:19 0.143504
3 *285:11 *285:18 0.287009
4 *285:11 *285:10 0.861002
5 *285:15 *285:10 0.287009
6 *285:16 *736:A 1.01999
7 *285:15 *285:16 0.287009
8 *285:16 *285:17 0.430489
9 *285:8 *729:B 1.01999
10 *285:12 *727:A 1.01999
11 *285:9 *285:17 0.287009
12 *285:9 *285:8 1.57850003
13 *285:12 *285:13 0.430489
14 *285:13 *285:9 0.430489
15 *285:14 *737:A 1.01999
16 *285:13 *285:14 0.573993
17 *285:6 *751:Y 1.01999
18 *285:7 *285:14 0.143504
19 *285:7 *285:6 1.14801
*END

*D_NET *286 0.00199253

*CONN
*I *802:Y O *C 33.005 23.165 *L 0 *D INVX4M
*I *787:A I *C 34.645 28.495 *L 0.00317 *D NAND2X2M
*I *727:B I *C 37.105 25.625 *L 0.00288 *D AND3X4M
*I *620:A1 I *C 36.285 22.755 *L 0.00868 *D OAI21X6M

*CAP
1 *802:Y 5.60316e-05
2 *787:A 5.60316e-05
3 *727:B 5.60316e-05
4 *620:A1 5.60316e-05
5 *286:4 7.03184e-05
6 *286:5 0.00013835
7 *286:6 0.00041065
8 *286:7 0.000125623
9 *286:10 4.58492e-05
10 *286:11 0.000174261
11 *286:12 0.000194588
12 *286:13 0.000126557
13 *286:14 0.000174261
14 *286:15 0.000307961

*RES
1 *286:13 *787:A 1.01999998
2 *286:4 *727:B 1.01999998
3 *286:12 *286:13 0.430499
4 *286:5 *286:4 0.286999
5 *286:12 *286:15 0.430499
6 *286:6 *286:5 0.430499
7 *286:6 *286:15 0.860999
8 *286:7 *620:A1 1.01999998
9 *286:9 *286:7 0.204277
10 *286:7 *286:6 0.717499
11 *286:14 *286:7 1.01999998
12 *286:11 *286:14 1.0045
13 *286:10 *286:11 1.01999998
14 *286:10 *802:Y 1.01999998
15 *286:8 *286:10 0.204277
*END

*D_NET *287 0.00168466

*CONN
*I *825:A1 I *C 49.405 60.065 *L 0.00176 *D AO21X2M
*I *798:Y O *C 44.895 55.145 *L 0 *D NAND2BX2M
*I *523:A I *C 48.995 60.065 *L 0.00276 *D BUFX4M

*CAP
1 *825:A1 2.48212e-05
2 *798:Y 5.60303e-05
3 *523:A 6.35504e-05
4 *287:3 0.000228371
5 *287:4 0.000228371
6 *287:5 0.00019689
7 *287:6 0.00019689
8 *287:7 0.00025067877
9 *287:8 0.00025067877
10 *287:5 *1:122 6.47e-05
11 *287:6 *1:123 6.47e-05
12 *287:5 *1:118 2.949e-05
13 *287:6 *1:119 2.94900041e-05

*RES
1 *523:A *825:A1 0.274121
2 *287:8 *523:A 1.02
3 *287:7 *287:8 1.29149997
4 *287:5 *287:7 1.02
5 *287:6 *287:5 1.29149997
6 *287:3 *287:6 1.02
7 *287:4 *287:3 1.00449
8 *798:Y *287:4 1.02
*END

*D_NET *288 0.00462506

*CONN
*I *750:Y O *C 78.515 62.525 *L 0 *D NAND2X6M
*I *735:B I *C 77.285 83.025 *L 0.00611 *D NOR2BX4M
*I *726:B0 I *C 75.235 62.935 *L 0.00168 *D OA21X2M
*I *712:A0 I *C 74.005 80.565 *L 0.00569 *D AOI2B1X4M

*CAP
1 *750:Y 2.6543e-05
2 *735:B 5.60312e-05
3 *726:B0 5.60312e-05
4 *712:A0 5.60312e-05
5 *288:4 0.00015517
6 *288:5 8.71437e-05
7 *288:6 0.0011698
8 *288:7 0.0011698
9 *288:8 8.11104e-05
10 *288:9 8.11104e-05
11 *288:10 0.00022898
12 *288:11 0.00022898
13 *288:12 0.000370031
14 *288:13 0.000218895
15 *288:14 8.94999e-05
16 *288:15 8.94999e-05
17 *288:16 0.000165398
18 *288:17 5.86908e-05
19 *288:18 5.11046e-05
20 *288:19 0.000140694
21 *288:20 4.45001e-05

*RES
1 *288:5 *726:B0 1.01998
2 *288:17 *750:Y 0.274147
3 *288:5 *288:4 0.430487
4 *288:18 *288:17 1.01998
5 *288:4 *288:19 0.430487
6 *288:18 *288:19 0.143465
7 *288:19 *288:20 0.143465
8 *288:11 *288:20 1.01998
9 *288:11 *288:10 1.148
10 *288:7 *288:10 1.01998
11 *288:8 *735:B 1.01998
12 *288:7 *288:6 6.02699995
13 *288:9 *288:8 0.430487
14 *288:16 *288:6 1.01998
15 *288:12 *288:9 1.01998
16 *288:12 *288:16 0.860974
17 *288:13 *288:12 1.148
18 *288:14 *288:13 1.01998
19 *288:15 *288:14 0.430487
20 *712:A0 *288:15 1.01998
*END

*D_NET *289 0.000589259

*CONN
*I *726:Y O *C 74.005 63.755 *L 0 *D OA21X2M
*I *714:D I *C 72.775 65.805 *L 0.00116 *D DFFRQX2M

*CAP
1 *726:Y 5.60296e-05
2 *714:D 5.60296e-05
3 *289:2 8.86e-05
4 *289:3 8.12104e-05
5 *289:4 8.59702e-05
6 *289:5 5.56492e-05
7 *289:6 6.40294e-05
8 *289:7 0.00010174

*RES
1 *289:6 *726:Y 1.01999998
2 *289:6 *289:7 0.286999
3 *289:4 *289:7 0.286999
4 *289:3 *714:D 1.01999998
5 *289:4 *289:5 0.1435
6 *289:2 *289:3 0.286999
7 *289:2 *289:5 0.1435
*END

*D_NET *290 0.0016288

*CONN
*I *754:Y O *C 30.955 40.385 *L 0 *D INVX2M
*I *725:A0N I *C 35.875 43.665 *L 0.00141 *D OAI2BB1X2M
*I *707:B I *C 37.515 43.255 *L 0.00207 *D OR2X2M

*CAP
1 *754:Y 5.60301e-05
2 *725:A0N 5.60301e-05
3 *707:B 5.60301e-05
4 *290:3 0.000195374
5 *290:4 0.000195374
6 *290:5 0.00045859
7 *290:6 0.000315236
8 *290:9 4.63383e-05
9 *290:10 4.63383e-05
10 *290:11 4.58485e-05
11 *290:12 0.000157615

*RES
1 *290:4 *754:Y 1.01999
2 *290:4 *290:3 1.00451
3 *290:11 *707:B 1.01999
4 *290:8 *290:11 0.204273
5 *290:6 *290:3 1.01999
6 *290:12 *290:11 1.01999
7 *290:10 *725:A0N 1.01999
8 *290:6 *290:5 1.57850003
9 *290:5 *290:12 0.717498
10 *290:9 *290:10 0.143504
11 *290:9 *290:5 1.01999
12 *290:7 *290:9 0.0675371
*END

*D_NET *291 0.00076222

*CONN
*I *722:Y O *C 58.425 57.605 *L 0 *D INVXLM
*I *613:SI I *C 57.195 60.065 *L 0.000896 *D SDFFRQX2M

*CAP
1 *722:Y 5.60318e-05
2 *613:SI 5.60318e-05
3 *291:2 0.00020123
4 *291:3 0.000193821
5 *291:4 0.000100921
6 *291:5 7.05403e-05
7 *291:6 8.36485e-05

*RES
1 *291:6 *722:Y 1.01999998
2 *291:4 *291:6 0.286999
3 *291:3 *613:SI 1.01999998
4 *291:4 *291:5 0.286999
5 *291:2 *291:3 0.860999
6 *291:2 *291:5 0.1435
*END

*D_NET *292 0.00114933

*CONN
*I *733:Y O *C 31.775 39.975 *L 0 *D OA22X4M
*I *721:A I *C 29.315 39.975 *L 0.00127 *D INVXLM
*I *654:B I *C 28.495 42.435 *L 0.00633 *D NAND2BX4M

*CAP
1 *733:Y 5.60283e-05
2 *721:A 4.9601e-05
3 *654:B 5.60283e-05
4 *292:3 0.000166622
5 *292:4 0.000166622
6 *292:5 0.00026342
7 *292:6 0.00026342
8 *292:8 8.17412e-05
9 *292:9 4.58508e-05

*RES
1 *292:8 *721:A 0.548232
2 *292:3 *654:B 1.02
3 *292:4 *292:8 1.02
4 *292:4 *292:3 0.861
5 *292:6 *292:4 1.02
6 *292:6 *292:5 1.148
7 *292:9 *292:5 1.02
8 *292:9 *733:Y 1.02
9 *292:7 *292:9 0.204267
*END

*D_NET *293 0.00168054

*CONN
*I *721:Y O *C 29.725 40.385 *L 0 *D INVXLM
*I *653:A0 I *C 29.725 49.405 *L 0.00114 *D AO21XLM

*CAP
1 *721:Y 5.60311e-05
2 *653:A0 5.60311e-05
3 *293:2 0.000205088
4 *293:3 0.000212518
5 *293:4 0.00038985
6 *293:5 0.00038985
7 *293:6 0.000181871
8 *293:7 0.0001893

*RES
1 *293:2 *653:A0 1.02
2 *293:3 *293:2 1.00449
3 *293:6 *721:Y 1.02
4 *293:4 *293:3 0.143504
5 *293:6 *293:7 0.861007
6 *293:5 *293:4 1.29149997
7 *293:5 *293:7 0.143504
*END

*D_NET *294 4.964e-05

*CONN
*I *728:Y O *C 42.025 23.575 *L 0 *D NAND3X2M
*I *497:A I *C 42.435 22.755 *L 0.00235 *D CLKBUFX6M

*CAP
1 *728:Y 2.482e-05
2 *497:A 2.482e-05

*RES
1 *728:Y *497:A 0.274114
*END

*D_NET *295 0.000430939

*CONN
*I *792:Y O *C 40.795 53.505 *L 0 *D NOR2X4M
*I *522:A I *C 41.615 54.325 *L 0.00276 *D BUFX4M

*CAP
1 *792:Y 5.60288e-05
2 *522:A 5.60288e-05
3 *295:2 8.36495e-05
4 *295:3 0.00013651
5 *295:4 9.872e-05

*RES
1 *295:4 *522:A 1.01999998
2 *295:3 *295:4 0.286999
3 *295:2 *295:3 0.286999
4 *792:Y *295:2 1.01999998
*END

*D_NET *296 0.00274064

*CONN
*I *741:Y O *C 50.225 63.345 *L 0 *D INVX2M
*I *719:A I *C 46.945 54.325 *L 0.00313 *D NAND3X2M
*I *706:A1N I *C 48.585 65.805 *L 0.00192 *D OAI2BB1X4M

*CAP
1 *741:Y 5.60278e-05
2 *719:A 5.60278e-05
3 *706:A1N 5.60278e-05
4 *296:3 0.000473171
5 *296:4 0.0004806
6 *296:5 0.000174038
7 *296:6 0.00026512
8 *296:7 0.00021196
9 *296:8 0.000204531
10 *296:9 6.18873e-05
11 *296:10 6.93234e-05
12 *296:11 8.55891e-05
13 *296:12 0.0001841
14 *296:14 7.48382e-05
15 *296:15 0.000151062
16 *296:16 4.5849e-05
17 *296:17 9.04805e-05

*RES
1 *296:11 *719:A 1.02001
2 *296:12 *296:11 0.286996
3 *296:12 *296:6 0.573991
4 *296:9 *706:A1N 1.02001
5 *296:6 *296:5 0.717489
6 *296:10 *296:9 0.143498
7 *296:4 *296:5 0.143498
8 *296:10 *296:7 0.143498
9 *296:4 *296:3 2.43950009
10 *296:8 *296:7 1.00448
11 *296:14 *296:3 1.02001
12 *296:15 *296:8 1.02001
13 *296:14 *296:15 0.286996
14 *296:15 *296:17 0.430493
15 *296:16 *296:17 1.02001
16 *296:16 *741:Y 1.02001
17 *296:13 *296:16 0.0349904
*END

*D_NET *297 0.000739698

*CONN
*I *718:Y O *C 55.145 74.825 *L 0 *D INVXLM
*I *637:SI I *C 53.095 77.285 *L 0.000896 *D SDFFRQX2M

*CAP
1 *718:Y 5.60289e-05
2 *637:SI 5.60289e-05
3 *297:2 0.000225460703
4 *297:3 9.65901e-05
5 *297:4 8.83609e-05
6 *297:5 0.000217231

*RES
1 *297:4 *718:Y 1.01999998
2 *297:3 *637:SI 1.01999998
3 *297:4 *297:5 0.573999
4 *297:2 *297:3 0.286999
5 *297:2 *297:5 0.717499
*END

*D_NET *298 0.00276932

*CONN
*I *717:Y O *C 33.825 73.595 *L 0 *D NAND2BX2M
*I *681:A I *C 31.775 60.065 *L 0.00313 *D NAND3X2M

*CAP
1 *717:Y 5.60296e-05
2 *681:A 5.60296e-05
3 *298:2 0.000286393
4 *298:3 0.000278958
5 *298:4 0.00046141
6 *298:5 0.00046141
7 *298:6 0.000177235
8 *298:7 0.000177235
9 *298:8 7.34764e-05
10 *298:9 7.34764e-05
11 *298:10 7.77501e-05
12 *298:11 0.000108109
13 *298:12 0.000137427
14 *298:13 9.96395e-05
15 *298:4 *152:5 9.491e-05
16 *298:5 *152:6 9.491e-05
17 *298:4 *152:7 2.746e-05
18 *298:5 *152:8 2.74600004e-05

*RES
1 *298:13 *717:Y 1.01998
2 *298:12 *298:13 0.28702
3 *298:11 *298:12 0.28702
4 *298:10 *298:11 0.28702
5 *298:4 *298:10 0.143489
6 *298:5 *298:4 2.72650003
7 *298:9 *298:5 0.143489
8 *298:3 *681:A 1.01998
9 *298:8 *298:9 0.28702
10 *298:3 *298:2 0.861018
11 *298:7 *298:8 0.143489
12 *298:6 *298:2 0.143489
13 *298:6 *298:7 0.861018
*END

*D_NET *299 0.000623311

*CONN
*I *811:QN O *C 39.975 65.395 *L 0 *D DFFRX1M
*I *457:A I *C 37.925 65.805 *L 0.00166 *D BUFX2M

*CAP
1 *811:QN 5.60317e-05
2 *457:A 5.60317e-05
3 *299:2 5.97604e-05
4 *299:3 5.97604e-05
5 *299:6 0.00017294
6 *299:7 4.58482e-05
7 *299:8 0.00017294

*RES
1 *299:5 *299:7 0.204277
2 *299:7 *811:QN 1.01999998
3 *299:8 *299:7 1.01999998
4 *299:2 *457:A 1.01999998
5 *299:6 *299:8 0.717499
6 *299:3 *299:2 0.1435
7 *299:3 *299:6 1.01999998
8 *299:4 *299:3 0.067532
*END

*D_NET *300 0.00186451

*CONN
*I *716:Y O *C 36.695 66.625 *L 0 *D NAND2BX2M
*I *681:B I *C 32.185 59.655 *L 0.003 *D NAND3X2M

*CAP
1 *716:Y 5.60345e-05
2 *681:B 5.60345e-05
3 *300:2 0.000374712
4 *300:3 0.000374712
5 *300:4 9.65913e-05
6 *300:5 9.65913e-05
7 *300:6 0.00040492
8 *300:7 0.00040492

*RES
1 *300:4 *716:Y 1.01999
2 *300:5 *300:4 0.287009
3 *300:6 *300:5 1.01999
4 *300:7 *300:6 1.722
5 *300:2 *300:7 1.01999
6 *300:3 *300:2 1.43499
7 *681:B *300:3 1.01999
*END

*D_NET *301 0.000713653

*CONN
*I *735:Y O *C 77.695 82.615 *L 0 *D NOR2BX4M
*I *513:A I *C 79.335 80.155 *L 0.00276 *D BUFX4M

*CAP
1 *735:Y 0.00010059
2 *513:A 5.60297e-05
3 *301:2 0.000212150938
4 *301:3 0.000132729
5 *301:4 0.000212150938

*RES
1 *301:2 *513:A 1.02
2 *301:2 *301:4 0.861007
3 *301:3 *301:4 1.02
4 *735:Y *301:3 1.09645712
*END

*D_NET *302 0.000788569

*CONN
*I *712:Y O *C 74.415 80.975 *L 0 *D AOI2B1X4M
*I *675:D I *C 70.725 80.155 *L 0.00116 *D DFFRQX2M

*CAP
1 *712:Y 5.60289e-05
2 *675:D 5.60289e-05
3 *302:3 4.58486e-05
4 *302:4 0.00023401
5 *302:5 8.13206e-05
6 *302:6 0.00023401
7 *302:7 8.13206e-05

*RES
1 *302:7 *712:Y 1.02
2 *302:5 *302:7 0.287009
3 *302:6 *302:5 1.02
4 *302:4 *302:6 1.29149997
5 *302:3 *675:D 1.02
6 *302:3 *302:4 1.02
7 *302:2 *302:3 0.20428
*END

*D_NET *303 0.00082703

*CONN
*I *711:Y O *C 66.625 47.765 *L 0 *D NOR2X4M
*I *674:D I *C 64.985 51.455 *L 0.00116 *D DFFRQX2M

*CAP
1 *711:Y 2.79309e-05
2 *674:D 5.60318e-05
3 *303:2 0.00019554
4 *303:3 0.000157748
5 *303:4 8.10207e-05
6 *303:5 0.00011138
7 *303:6 6.00688e-05
8 *303:7 6.49383e-05
9 *303:8 7.23708e-05

*RES
1 *303:6 *711:Y 0.274113
2 *303:7 *303:6 1.01999998
3 *303:7 *303:8 0.286999
4 *303:4 *303:8 0.1435
5 *303:3 *674:D 1.01999998
6 *303:4 *303:5 0.286999
7 *303:2 *303:3 0.717499
8 *303:2 *303:5 0.286999
*END

*D_NET *304 0.00104519

*CONN
*I *814:D I *C 62.115 57.195 *L 0.00115 *D DFFRX1M
*I *710:Y O *C 66.625 59.245 *L 0 *D NOR2X3M

*CAP
1 *814:D 5.60282e-05
2 *710:Y 5.60282e-05
3 *304:2 8.62816e-05
4 *304:3 8.62816e-05
5 *304:4 0.00030479
6 *304:5 7.54917e-05
7 *304:6 0.00030479
8 *304:7 7.54917e-05

*RES
1 *304:7 *710:Y 1.01999
2 *304:5 *304:7 0.287009
3 *304:6 *304:5 1.01999
4 *304:4 *304:6 1.57850003
5 *304:3 *304:4 1.01999
6 *304:2 *304:3 0.430489
7 *814:D *304:2 1.01999
*END

*D_NET *305 0.00140704

*CONN
*I *730:Y O *C 52.685 60.885 *L 0 *D OAI2BB1X2M
*I *504:A I *C 51.455 68.675 *L 0.00276 *D BUFX4M

*CAP
1 *730:Y 5.60324e-05
2 *504:A 5.60324e-05
3 *305:2 0.000561439
4 *305:3 0.00059923
5 *305:4 4.82603e-05
6 *305:5 8.6051e-05

*RES
1 *305:4 *730:Y 1.01998
2 *305:2 *504:A 1.01998
3 *305:4 *305:5 0.143489
4 *305:3 *305:2 2.72650003
5 *305:3 *305:5 0.28702
*END

*D_NET *306 0.000524899

*CONN
*I *709:Y O *C 53.915 67.855 *L 0 *D OAI2BB1X2M
*I *662:B0 I *C 53.505 65.805 *L 0.00173 *D AO22X2M

*CAP
1 *709:Y 5.60281e-05
2 *662:B0 5.60281e-05
3 *306:2 0.00020642
4 *306:3 0.00020642

*RES
1 *306:2 *709:Y 1.01999998
2 *306:3 *306:2 0.860999
3 *662:B0 *306:3 1.01999998
*END

*D_NET *307 0.000515321

*CONN
*I *759:Y O *C 19.065 24.805 *L 0 *D NAND2X2M
*I *512:A I *C 18.655 22.755 *L 0.00276 *D BUFX4M

*CAP
1 *759:Y 5.02903e-05
2 *512:A 4.96002e-05
3 *307:2 8.17405e-05
4 *307:3 0.00012563
5 *307:4 8.24306e-05
6 *307:5 0.00012563

*RES
1 *307:4 *759:Y 0.548225
2 *307:5 *307:4 1.01999998
3 *307:3 *307:5 0.860999
4 *307:2 *512:A 0.548225
5 *307:2 *307:3 1.01999998
*END

*D_NET *308 0.00352631

*CONN
*I *820:A I *C 34.645 34.645 *L 0.00199 *D OR2X2M
*I *727:Y O *C 35.875 24.805 *L 0 *D AND3X4M
*I *708:A I *C 26.855 25.215 *L 0.00584 *D NOR2X4M

*CAP
1 *820:A 5.60261e-05
2 *727:Y 5.60261e-05
3 *708:A 5.60261e-05
4 *308:3 5.03867e-05
5 *308:4 5.03867e-05
6 *308:5 0.000236107
7 *308:6 0.000243538
8 *308:7 0.000343921
9 *308:8 0.000404518
10 *308:9 0.000201444
11 *308:10 0.000220843
12 *308:11 0.000101669
13 *308:12 0.0007527
14 *308:13 0.0007527

*RES
1 *308:5 *820:A 1.01998
2 *308:6 *308:5 1.29151
3 *308:7 *308:6 0.143511
4 *308:8 *308:7 1.29151
5 *308:8 *308:9 0.430487
6 *308:10 *308:9 0.430487
7 *308:10 *727:Y 1.01998
8 *308:11 *308:10 0.287022
9 *308:12 *308:11 1.01998
10 *308:3 *708:A 1.01998
11 *308:13 *308:12 3.01349998
12 *308:4 *308:3 0.143511
13 *308:4 *308:13 1.01998
14 *308:14 *308:4 0.0675481
*END

*D_NET *309 0.000753631

*CONN
*I *708:Y O *C 26.035 24.805 *L 0 *D NOR2X4M
*I *598:A0 I *C 25.625 28.495 *L 0.00184 *D AO21X2M

*CAP
1 *708:Y 3.07615e-05
2 *598:A0 5.60304e-05
3 *309:2 0.00030197
4 *309:3 0.00030197
5 *309:4 6.29006e-05

*RES
1 *309:2 *598:A0 1.02
2 *309:3 *309:2 1.29149997
3 *309:4 *309:3 1.02
4 *309:4 *708:Y 0.274121
*END

*D_NET *310 0.00109261

*CONN
*I *743:Y O *C 23.985 26.445 *L 0 *D NAND2BX2M
*I *503:A I *C 24.395 31.365 *L 0.00235 *D CLKBUFX6M

*CAP
1 *743:Y 5.02885e-05
2 *503:A 5.60277e-05
3 *310:2 8.24333e-05
4 *310:3 0.00015295
5 *310:4 0.000251461
6 *310:5 0.00029898
7 *310:6 0.00020047

*RES
1 *310:6 *503:A 1.01999998
2 *310:5 *310:6 1.0045
3 *310:4 *310:5 0.573999
4 *310:3 *310:4 0.860999
5 *310:2 *310:3 1.01999998
6 *310:2 *743:Y 0.548225
*END

*D_NET *311 0.0012415

*CONN
*I *729:Y O *C 38.745 32.185 *L 0 *D NAND2BX2M
*I *702:A I *C 37.515 36.695 *L 0.00199 *D OR2X2M
*I *496:A I *C 36.695 37.105 *L 0.00166 *D BUFX2M

*CAP
1 *729:Y 5.60316e-05
2 *702:A 5.60316e-05
3 *496:A 5.60316e-05
4 *311:3 9.56882e-05
5 *311:4 0.00013348
6 *311:5 8.22823e-05
7 *311:6 0.000132942
8 *311:7 7.35924e-05
9 *311:8 0.000258823
10 *311:9 0.00029661

*RES
1 *311:8 *729:Y 1.01999
2 *311:8 *311:9 1.722
3 *311:5 *311:9 0.287009
4 *311:7 *702:A 1.01999
5 *311:3 *496:A 1.01999
6 *311:5 *311:6 0.143491
7 *311:6 *311:7 0.287009
8 *311:4 *311:3 0.4305
9 *311:4 *311:6 0.287009
*END

*D_NET *312 0.001163

*CONN
*I *702:Y O *C 39.155 36.285 *L 0 *D OR2X2M
*I *629:SE I *C 41.205 42.845 *L 0.00231 *D SDFFRQX2M

*CAP
1 *702:Y 5.60303e-05
2 *629:SE 5.60303e-05
3 *312:2 0.000215942
4 *312:3 0.000185578
5 *312:4 9.75502e-05
6 *312:5 0.000135339
7 *312:6 0.000242340859
8 *312:7 0.000174189

*RES
1 *312:7 *629:SE 1.01999998
2 *312:6 *312:7 0.573999
3 *312:2 *312:6 0.430499
4 *312:3 *312:2 0.717499
5 *312:5 *312:3 0.286999
6 *312:4 *312:5 0.430499
7 *702:Y *312:4 1.01999998
*END

*D_NET *313 0.000575981

*CONN
*I *701:Y O *C 23.575 23.575 *L 0 *D OR3X2M
*I *621:B0 I *C 21.935 19.885 *L 0.00579 *D OAI21X4M

*CAP
1 *701:Y 9.34193e-05
2 *621:B0 5.60305e-05
3 *313:2 0.000147190381
4 *313:3 0.000132149
5 *313:4 0.000147190381

*RES
1 *313:3 *701:Y 1.09645712
2 *313:4 *313:3 1.02
3 *313:2 *313:4 0.717492
4 *621:B0 *313:2 1.02
*END

*D_NET *314 0.00047294

*CONN
*I *700:Y O *C 62.525 24.805 *L 0 *D NAND2BX1M
*I *485:A I *C 62.935 28.495 *L 0.00166 *D BUFX2M

*CAP
1 *700:Y 2.51492e-05
2 *485:A 5.60287e-05
3 *314:2 5.70902e-05
4 *314:3 7.06699e-05
5 *314:4 0.000132
6 *314:5 0.000132

*RES
1 *314:5 *485:A 1.01999998
2 *314:4 *314:5 0.717499
3 *314:3 *314:4 1.01999998
4 *314:2 *314:3 0.274113
5 *700:Y *314:2 0.274113
*END

*D_NET *315 0.000934652

*CONN
*I *724:Y O *C 28.905 19.475 *L 0 *D INVX2M
*I *698:A I *C 29.725 19.885 *L 0.00317 *D NAND2X2M
*I *666:A1N I *C 26.855 19.475 *L 0.00131 *D OAI2BB1X2M

*CAP
1 *724:Y 5.60305e-05
2 *698:A 5.60305e-05
3 *666:A1N 5.60305e-05
4 *315:3 9.88792e-05
5 *315:4 9.56805e-05
6 *315:5 0.000190741035
7 *315:6 6.18922e-05
8 *315:7 0.0001776
9 *315:8 5.20285e-05
10 *315:9 8.97401e-05

*RES
1 *315:8 *698:A 1.01999998
2 *315:8 *315:9 0.1435
3 *315:3 *315:9 0.286999
4 *315:4 *315:3 0.286999
5 *315:4 *724:Y 1.01999998
6 *315:6 *666:A1N 1.01999998
7 *315:7 *315:4 0.1435
8 *315:5 *315:6 0.1435
9 *315:5 *315:7 0.717499
*END

*D_NET *316 0.000667169

*CONN
*I *696:Y O *C 67.855 21.935 *L 0 *D NAND2BX2M
*I *656:A I *C 69.905 19.885 *L 0.00317 *D NAND2X2M

*CAP
1 *696:Y 0.00011119
2 *656:A 5.60302e-05
3 *316:2 0.00017831
4 *316:3 0.000143331
5 *316:4 0.00017831

*RES
1 *316:2 *656:A 1.02
2 *316:2 *316:4 0.861007
3 *316:3 *316:4 1.02
4 *696:Y *316:3 1.09645712
*END

*D_NET *317 0.00132806

*CONN
*I *761:Y O *C 62.525 30.955 *L 0 *D INVX1M
*I *695:A0N I *C 66.625 33.415 *L 0.00141 *D OAI2BB1X2M
*I *667:A0N I *C 62.115 33.415 *L 0.00141 *D OAI2BB1X2M

*CAP
1 *761:Y 5.6029e-05
2 *695:A0N 5.6029e-05
3 *667:A0N 5.6029e-05
4 *317:3 0.00035429
5 *317:4 0.00035429
6 *317:5 0.000202773
7 *317:6 0.000202773
8 *317:8 4.58493e-05

*RES
1 *317:6 *761:Y 1.01999
2 *317:5 *667:A0N 1.01999
3 *317:6 *317:5 0.717498
4 *317:4 *317:5 1.01999
5 *317:4 *317:3 1.57850003
6 *317:8 *695:A0N 1.01999
7 *317:8 *317:3 1.01999
8 *317:7 *317:8 0.204273
*END

*D_NET *318 0.00133601

*CONN
*I *695:Y O *C 67.855 33.415 *L 0 *D OAI2BB1X2M
*I *445:A I *C 74.415 34.235 *L 0.00166 *D BUFX2M

*CAP
1 *695:Y 5.60313e-05
2 *445:A 5.60313e-05
3 *318:2 9.65899e-05
4 *318:3 9.65899e-05
5 *318:4 0.00026762
6 *318:5 0.00026762
7 *318:7 0.000115999
8 *318:8 0.00012346
9 *318:9 0.000108841
10 *318:10 4.58509e-05
11 *318:11 0.00010138

*RES
1 *318:3 *695:Y 1.02
2 *318:3 *318:2 0.286996
3 *318:7 *318:2 1.02
4 *318:7 *318:8 0.430504
5 *318:5 *318:8 0.143509
6 *318:5 *318:4 1.43499994
7 *318:4 *318:9 0.143509
8 *318:9 *318:11 0.430504
9 *318:10 *445:A 1.02
10 *318:10 *318:11 1.02
11 *318:6 *318:10 0.204271
*END

*D_NET *319 9.92e-05

*CONN
*I *725:Y O *C 34.645 43.665 *L 0 *D OAI2BB1X2M
*I *502:A I *C 33.415 42.845 *L 0.00499 *D BUFX8M

*CAP
1 *725:Y 4.96e-05
2 *502:A 4.96e-05

*RES
1 *502:A *725:Y 0.548229
*END

*D_NET *320 0.00067035

*CONN
*I *694:Y O *C 26.445 47.765 *L 0 *D NOR2X4M
*I *610:B0 I *C 24.805 48.585 *L 0.00173 *D AO22X2M

*CAP
1 *694:Y 5.60305e-05
2 *610:B0 5.60305e-05
3 *320:2 0.00010448
4 *320:3 0.00010448
5 *320:4 0.00015174
6 *320:5 0.00015174
7 *320:7 4.58496e-05

*RES
1 *320:2 *610:B0 1.01999998
2 *320:3 *320:2 0.286999
3 *320:5 *320:3 1.01999998
4 *320:5 *320:4 0.573999
5 *320:7 *320:4 1.01999998
6 *320:7 *694:Y 1.01999998
7 *320:6 *320:7 0.204277
*END

*D_NET *321 9.92e-05

*CONN
*I *755:Y O *C 46.125 63.755 *L 0 *D NAND2X2M
*I *511:A I *C 47.355 62.935 *L 0.00499 *D BUFX8M

*CAP
1 *755:Y 4.96e-05
2 *511:A 4.96e-05

*RES
1 *755:Y *511:A 0.548229
*END

*D_NET *322 0.000426679

*CONN
*I *719:Y O *C 47.355 53.505 *L 0 *D NAND3X2M
*I *429:A I *C 48.175 54.325 *L 0.00166 *D BUFX2M

*CAP
1 *719:Y 5.60301e-05
2 *429:A 5.60301e-05
3 *322:2 8.36504e-05
4 *322:3 9.65892e-05
5 *322:4 0.00013438

*RES
1 *322:3 *429:A 1.01999998
2 *322:3 *322:4 0.286999
3 *322:2 *322:4 0.286999
4 *719:Y *322:2 1.01999998
*END

*D_NET *323 0.00107344

*CONN
*I *693:Y O *C 53.915 57.605 *L 0 *D CLKNAND2X2M
*I *613:SE I *C 55.145 60.065 *L 0.00231 *D SDFFRQX2M

*CAP
1 *693:Y 5.60315e-05
2 *613:SE 5.60315e-05
3 *323:2 0.000105329
4 *323:3 0.000105329
5 *323:4 0.00027176
6 *323:5 0.00027176
7 *323:6 0.000103599
8 *323:7 0.000103599

*RES
1 *323:2 *613:SE 1.01999998
2 *323:3 *323:2 0.430499
3 *323:6 *323:3 1.01999998
4 *323:7 *323:6 0.430499
5 *323:4 *323:7 1.01999998
6 *323:5 *323:4 0.717499
7 *693:Y *323:5 1.01999998
*END

*D_NET *324 4.964e-05

*CONN
*I *736:Y O *C 42.025 24.805 *L 0 *D AND3X2M
*I *495:A I *C 42.435 25.625 *L 0.00276 *D BUFX4M

*CAP
1 *736:Y 2.482e-05
2 *495:A 2.482e-05

*RES
1 *736:Y *495:A 0.274114
*END

*D_NET *325 0.00064693

*CONN
*I *691:Y O *C 67.035 26.445 *L 0 *D OAI2BB1X2M
*I *661:B0 I *C 70.315 25.625 *L 0.00579 *D OAI21X4M

*CAP
1 *691:Y 5.60302e-05
2 *661:B0 5.60302e-05
3 *325:2 0.00018262
4 *325:3 0.00018262
5 *325:6 6.18904e-05
6 *325:7 6.18904e-05
7 *325:8 4.5848e-05

*RES
1 *325:8 *661:B0 1.01999998
2 *325:5 *325:8 0.204277
3 *325:2 *325:8 1.01999998
4 *325:3 *325:2 1.0045
5 *325:7 *691:Y 1.01999998
6 *325:6 *325:3 1.01999998
7 *325:6 *325:7 0.1435
8 *325:4 *325:6 0.067532
*END

*D_NET *326 0.000966441

*CONN
*I *690:Y O *C 24.805 37.515 *L 0 *D OAI2BB2X8M
*I *438:A I *C 28.495 37.105 *L 0.00166 *D BUFX2M

*CAP
1 *690:Y 5.603e-05
2 *438:A 5.603e-05
3 *326:2 0.00038134
4 *326:3 0.00038134
5 *326:6 4.58469e-05
6 *326:7 4.58469e-05

*RES
1 *326:7 *438:A 1.01999
2 *326:5 *326:7 0.204273
3 *326:2 *326:7 1.01999
4 *326:3 *326:2 1.57850003
5 *326:6 *326:3 1.01999
6 *326:6 *690:Y 1.01999
7 *326:4 *326:6 0.204273
*END

*D_NET *327 0.00209686

*CONN
*I *737:Y O *C 37.925 29.315 *L 0 *D NAND2X2M
*I *494:A I *C 28.905 31.365 *L 0.00235 *D CLKBUFX6M

*CAP
1 *737:Y 5.6033e-05
2 *494:A 5.6033e-05
3 *327:2 0.000141598
4 *327:3 0.000141598
5 *327:4 0.000104136
6 *327:5 0.000104136
7 *327:6 0.00074667
8 *327:7 0.00074667

*RES
1 *327:3 *737:Y 1.01999
2 *327:3 *327:2 0.430513
3 *327:6 *327:2 1.01999
4 *327:4 *494:A 1.01999
5 *327:7 *327:6 3.15700006
6 *327:5 *327:4 0.287009
7 *327:5 *327:7 1.01999
*END

*D_NET *328 9.92e-05

*CONN
*I *689:Y O *C 27.675 23.575 *L 0 *D AOI21X4M
*I *664:A I *C 29.725 22.755 *L 0.00168 *D AND2X2M

*CAP
1 *689:Y 4.96e-05
2 *664:A 4.96e-05

*RES
1 *689:Y *664:A 0.548229
*END

*D_NET *329 0.000520937

*CONN
*I *688:Y O *C 48.585 21.935 *L 0 *D OAI21X6M
*I *447:A I *C 50.225 22.755 *L 0.00168 *D CLKBUFX1M

*CAP
1 *688:Y 5.60303e-05
2 *447:A 5.60303e-05
3 *329:2 4.63292e-05
4 *329:3 0.000144679
5 *329:4 0.00015811
6 *329:5 5.97602e-05

*RES
1 *329:5 *447:A 1.01999998
2 *329:4 *329:5 0.1435
3 *329:3 *329:4 0.573999
4 *329:2 *329:3 0.1435
5 *688:Y *329:2 1.01999998
*END

*D_NET *330 0.000489139

*CONN
*I *687:Y O *C 47.765 33.415 *L 0 *D OAI2BB1X2M
*I *483:A I *C 48.995 34.235 *L 0.00166 *D BUFX2M

*CAP
1 *687:Y 5.60294e-05
2 *483:A 5.60294e-05
3 *330:2 8.81791e-05
4 *330:3 5.03904e-05
5 *330:4 0.00013815
6 *330:5 0.000100359

*RES
1 *330:5 *483:A 1.01999998
2 *330:4 *330:5 0.286999
3 *330:3 *687:Y 1.01999998
4 *330:2 *330:4 0.286999
5 *330:2 *330:3 0.1435
*END

*D_NET *331 0.00057744

*CONN
*I *815:QN O *C 72.775 74.825 *L 0 *D DFFRX1M
*I *454:A I *C 74.415 74.415 *L 0.00166 *D BUFX2M

*CAP
1 *815:QN 5.60316e-05
2 *454:A 5.60316e-05
3 *331:2 0.000160242
4 *331:3 6.18904e-05
5 *331:4 7.24483e-05
6 *331:5 0.0001708

*RES
1 *331:4 *454:A 1.01999998
2 *331:4 *331:5 0.286999
3 *331:2 *331:5 0.573999
4 *331:3 *331:2 0.1435
5 *815:QN *331:3 1.01999998
*END

*D_NET *332 0.00064106

*CONN
*I *683:Y O *C 63.345 26.445 *L 0 *D NAND2X4M
*I *646:B0 I *C 64.575 22.755 *L 0.0112 *D OAI21X8M

*CAP
1 *683:Y 5.60319e-05
2 *646:B0 5.60319e-05
3 *332:2 0.0002645
4 *332:3 0.0002645

*RES
1 *332:2 *683:Y 1.02
2 *332:3 *332:2 1.148
3 *646:B0 *332:3 1.02
*END

*D_NET *333 0.00618553

*CONN
*I *804:Y O *C 27.265 76.465 *L 0 *D INVX8M
*I *775:B0 I *C 37.105 71.545 *L 0.00173 *D AO22X2M
*I *774:A0 I *C 33.825 71.545 *L 0.00187 *D AO22X2M
*I *773:A0 I *C 30.955 74.415 *L 0.00187 *D AO22X2M
*I *740:S0 I *C 28.495 78.105 *L 0.00552 *D MX3X2M
*I *739:S0 I *C 28.085 66.625 *L 0.00388 *D MX3X1M
*I *682:C I *C 35.465 74.415 *L 0.00292 *D NAND3X2M
*I *642:A1 I *C 37.925 74.415 *L 0.00595 *D OAI21X4M

*CAP
1 *804:Y 2.65562e-05
2 *775:B0 5.603e-05
3 *774:A0 5.603e-05
4 *773:A0 5.603e-05
5 *740:S0 5.603e-05
6 *739:S0 5.603e-05
7 *682:C 5.603e-05
8 *642:A1 5.603e-05
9 *333:8 7.78643e-05
10 *333:9 7.78643e-05
11 *333:10 9.78942e-05
12 *333:11 9.78942e-05
13 *333:12 0.000286772
14 *333:13 0.000460573
15 *333:14 0.000333627
16 *333:15 0.000159807
17 *333:16 0.0002668
18 *333:17 0.000628970156
19 *333:21 5.86885e-05
20 *333:22 5.29204e-05
21 *333:23 9.07153e-05
22 *333:24 6.84683e-05
23 *333:25 0.000323521
24 *333:26 0.000201413
25 *333:27 0.000370846
26 *333:28 9.93626e-05
27 *333:29 0.000313213
28 *333:30 0.000290592
29 *333:31 0.000376854
30 *333:32 0.000376854
31 *333:33 0.000563583
32 *333:34 4.58471e-05
33 *333:35 4.58471e-05

*RES
1 *804:Y *333:21 0.274123
2 *333:22 *333:21 1.01999
3 *333:24 *739:S0 1.01999
4 *333:8 *775:B0 1.01999
5 *333:22 *333:23 0.143504
6 *333:24 *333:29 0.215257
7 *333:10 *774:A0 1.01999
8 *333:9 *333:8 0.287009
9 *333:23 *333:28 0.287009
10 *333:29 *333:30 1.379
11 *333:11 *333:10 0.287009
12 *333:12 *333:9 1.01999
13 *333:27 *740:S0 1.01999
14 *333:27 *333:28 0.143504
15 *333:35 *642:A1 1.01999
16 *333:20 *333:35 0.204273
17 *333:15 *333:30 1.01999
18 *333:13 *333:11 1.01999
19 *333:13 *333:12 1.14801
20 *333:25 *333:27 1.29149
21 *333:34 *682:C 1.01999
22 *333:19 *333:34 0.034997
23 *333:16 *333:35 1.01999
24 *333:15 *333:14 0.717498
25 *333:14 *333:13 1.00451
26 *333:26 *333:25 1.01999
27 *333:17 *333:34 1.01999
28 *333:17 *333:16 0.861002
29 *333:31 *333:14 1.01999
30 *333:26 *333:33 0.861002
31 *333:33 *333:17 1.57850003
32 *333:32 *773:A0 1.01999
33 *333:31 *333:32 1.29149
34 *333:32 *333:33 1.01999
35 *333:18 *333:32 0.204273
*END

*D_NET *334 0.00113756

*CONN
*I *682:Y O *C 37.105 75.235 *L 0 *D NAND3X2M
*I *492:A I *C 37.925 77.285 *L 0.0017 *D CLKBUFX2M

*CAP
1 *682:Y 5.60281e-05
2 *492:A 5.60281e-05
3 *334:2 6.35321e-05
4 *334:3 7.09609e-05
5 *334:4 0.00024638
6 *334:5 0.000238947
7 *334:6 0.000109981
8 *334:7 0.000109981
9 *334:8 9.28601e-05
10 *334:9 9.28601e-05

*RES
1 *334:6 *492:A 1.01999998
2 *334:7 *334:6 0.430499
3 *334:8 *334:7 1.01999998
4 *334:9 *334:8 0.430499
5 *334:5 *682:Y 1.01999998
6 *334:2 *334:9 1.01999998
7 *334:5 *334:4 0.717499
8 *334:3 *334:2 0.1435
9 *334:3 *334:4 0.1435
*END

*D_NET *335 0.000567758

*CONN
*I *734:Y O *C 19.885 66.215 *L 0 *D XOR3X1M
*I *431:A I *C 18.655 65.805 *L 0.00166 *D BUFX2M

*CAP
1 *734:Y 5.60283e-05
2 *431:A 5.60283e-05
3 *335:2 9.71798e-05
4 *335:3 0.00016533
5 *335:4 6.25194e-05
6 *335:5 0.00013067

*RES
1 *335:4 *734:Y 1.01999998
2 *335:4 *335:5 0.286999
3 *335:3 *335:5 0.430499
4 *335:2 *335:3 0.430499
5 *431:A *335:2 1.01999998
*END

*D_NET *336 0.000869969

*CONN
*I *723:Y O *C 10.045 66.215 *L 0 *D XOR3X1M
*I *439:A I *C 12.095 68.675 *L 0.00166 *D BUFX2M

*CAP
1 *723:Y 2.91093e-05
2 *439:A 5.60286e-05
3 *336:2 0.00015687
4 *336:3 0.00024203
5 *336:4 0.000146411
6 *336:5 8.36496e-05
7 *336:6 9.68305e-05
8 *336:7 5.90386e-05

*RES
1 *336:7 *439:A 1.02
2 *336:6 *336:7 0.286993
3 *336:5 *336:6 0.286993
4 *336:4 *336:5 1.02
5 *336:3 *336:4 1.37057137
6 *336:2 *336:3 1.09646
7 *336:2 *723:Y 0.54822
*END

*D_NET *337 0.000462479

*CONN
*I *602:D I *C 18.245 60.885 *L 0.00103 *D SDFFRQX2M
*I *580:Y O *C 18.245 62.525 *L 0 *D XNOR2X8M

*CAP
1 *602:D 5.60292e-05
2 *580:Y 5.60292e-05
3 *337:2 0.00017521
4 *337:3 0.00017521

*RES
1 *337:3 *580:Y 1.01999998
2 *337:2 *337:3 0.573999
3 *602:D *337:2 1.01999998
*END

*D_NET *338 0.000543761

*CONN
*I *681:Y O *C 31.365 59.245 *L 0 *D NAND3X2M
*I *643:B0 I *C 30.135 59.655 *L 0.00168 *D OAI2BB1X1M

*CAP
1 *681:Y 5.6029e-05
2 *643:B0 5.6029e-05
3 *338:2 8.79401e-05
4 *338:3 0.00015609
5 *338:4 0.000127911
6 *338:5 5.97613e-05

*RES
1 *338:5 *681:Y 1.01999998
2 *338:4 *338:5 0.1435
3 *338:3 *338:4 0.430499
4 *338:2 *338:3 0.286999
5 *643:B0 *338:2 1.01999998
*END

*D_NET *339 4.964e-05

*CONN
*I *680:Y O *C 47.765 70.725 *L 0 *D NAND3X2M
*I *491:A I *C 48.175 71.545 *L 0.0017 *D CLKBUFX2M

*CAP
1 *680:Y 2.482e-05
2 *491:A 2.482e-05

*RES
1 *680:Y *491:A 0.274114
*END

*D_NET *340 0.00342175

*CONN
*I *715:Y O *C 78.515 78.105 *L 0 *D NAND2X4M
*I *686:A I *C 73.595 76.875 *L 0.00584 *D NOR2X4M
*I *679:B0 I *C 77.695 80.155 *L 0.00168 *D OA21X2M
*I *640:A0 I *C 74.825 71.545 *L 0.00132 *D AO21X1M

*CAP
1 *715:Y 5.60309e-05
2 *686:A 5.60309e-05
3 *679:B0 5.60309e-05
4 *640:A0 5.60309e-05
5 *340:4 6.44767e-05
6 *340:5 6.44767e-05
7 *340:6 0.000249411
8 *340:7 0.000249411
9 *340:8 6.47656e-05
10 *340:9 6.47656e-05
11 *340:10 0.000343937
12 *340:11 0.000336552
13 *340:12 4.8752e-05
14 *340:13 0.00036414
15 *340:14 0.000209138
16 *340:15 4.28567e-05
17 *340:16 4.28567e-05
18 *340:19 0.000190991
19 *340:20 6.17596e-05
20 *340:21 0.000165909
21 *340:22 0.000158525
22 *340:12 *178:14 3.94e-05
23 *340:13 *178:6 3.94e-05
24 *340:13 *178:6 0.00017852
25 *340:14 *178:7 0.00017852
26 *340:15 *178:12 1.953e-05
27 *340:16 *178:11 1.95299963e-05

*RES
1 *340:9 *640:A0 1.02
2 *340:9 *340:8 0.287009
3 *340:7 *340:8 1.02
4 *340:7 *340:6 1.00449
5 *340:11 *340:6 1.02
6 *340:11 *340:10 1.148
7 *340:5 *686:A 1.02
8 *340:10 *340:21 0.143504
9 *340:5 *340:4 0.287009
10 *340:21 *340:22 0.717502
11 *340:18 *340:22 0.20428
12 *340:22 *715:Y 1.02
13 *340:14 *340:4 1.02
14 *340:12 *340:22 1.02
15 *340:14 *340:13 1.29149997
16 *340:13 *340:12 0.287009
17 *340:13 *340:19 0.717502
18 *340:15 *679:B0 1.02
19 *340:19 *340:20 0.143504
20 *340:16 *340:15 0.143504
21 *340:16 *340:20 1.02
22 *340:17 *340:16 0.0675349
*END

*D_NET *341 0.00103378

*CONN
*I *679:Y O *C 76.465 80.975 *L 0 *D OA21X2M
*I *636:D I *C 76.465 74.415 *L 0.00116 *D DFFRQX2M

*CAP
1 *679:Y 5.6032e-05
2 *636:D 5.6032e-05
3 *341:2 0.00029185
4 *341:3 0.00029185
5 *341:4 0.000102578
6 *341:5 0.000109971
7 *341:6 6.64306e-05
8 *341:7 5.90425e-05

*RES
1 *341:7 *679:Y 1.02
2 *341:6 *341:7 0.287
3 *341:6 *341:2 0.1435
4 *341:3 *341:2 1.148
5 *341:5 *341:3 0.1435
6 *341:4 *341:5 0.287
7 *636:D *341:4 1.02
*END

*D_NET *342 0.0010612

*CONN
*I *678:Y O *C 52.685 42.025 *L 0 *D NOR2X4M
*I *639:D I *C 50.225 45.715 *L 0.00116 *D DFFRQX2M

*CAP
1 *678:Y 3.0429e-05
2 *639:D 5.60267e-05
3 *342:2 0.0003904
4 *342:3 0.00026153
5 *342:4 0.000191259
6 *342:5 6.91622e-05
7 *342:6 6.23889e-05

*RES
1 *342:5 *678:Y 0.274121
2 *342:6 *342:5 1.02
3 *342:3 *639:D 1.02
4 *342:4 *342:6 0.143509
5 *342:2 *342:3 1.43499994
6 *342:2 *342:4 0.7175
*END

*D_NET *343 0.00282231

*CONN
*I *713:Y O *C 54.735 72.365 *L 0 *D OAI2BB1X2M
*I *677:B0 I *C 56.785 74.415 *L 0.0013 *D AO21X1M
*I *622:A1N I *C 61.295 80.975 *L 0.000978 *D OAI2BB1X1M

*CAP
1 *713:Y 5.60266e-05
2 *677:B0 5.60266e-05
3 *622:A1N 5.60266e-05
4 *343:3 0.00015271
5 *343:4 0.00015271
6 *343:5 0.00044371
7 *343:6 0.00044371
8 *343:7 0.000123868
9 *343:8 0.000123868
10 *343:9 0.000180341
11 *343:10 9.27502e-05
12 *343:11 0.000261893
13 *343:12 0.000261893
14 *343:13 0.00010183
15 *343:11 *148:11 1.903e-05
16 *343:12 *148:12 1.903e-05
17 *343:5 *148:13 2.04e-05
18 *343:6 *148:14 2.04e-05
19 *343:13 *148:15 5.989e-05
20 *343:9 *148:16 5.989e-05
21 *343:9 *148:15 5.815e-05
22 *343:10 *148:16 5.8149999e-05

*RES
1 *343:5 *622:A1N 1.02
2 *343:6 *343:5 1.86549997
3 *343:11 *343:6 1.02
4 *343:12 *343:11 1.57851
5 *343:13 *343:12 1.02
6 *343:9 *677:B0 1.02
7 *343:9 *343:13 0.430509
8 *343:10 *343:9 0.430509
9 *343:7 *343:10 1.02
10 *343:8 *343:7 0.574002
11 *343:3 *343:8 1.02
12 *343:4 *343:3 0.430509
13 *713:Y *343:4 1.02
*END

*D_NET *344 0.00162266

*CONN
*I *677:Y O *C 58.015 74.825 *L 0 *D AO21X1M
*I *624:A1N I *C 58.015 82.615 *L 0.00131 *D OAI2BB1X2M

*CAP
1 *677:Y 5.60352e-05
2 *624:A1N 5.60352e-05
3 *344:2 0.0007553
4 *344:3 0.0007553

*RES
1 *344:2 *624:A1N 1.02002
2 *344:3 *344:2 2.86999989
3 *677:Y *344:3 1.02002
*END

*D_NET *345 0.000798001

*CONN
*I *676:Y O *C 41.615 70.725 *L 0 *D NAND3X2M
*I *490:A I *C 43.665 68.675 *L 0.00166 *D BUFX2M

*CAP
1 *676:Y 5.60296e-05
2 *490:A 5.60296e-05
3 *345:2 0.00016477
4 *345:3 0.00016477
5 *345:4 0.000102711
6 *345:5 0.000102711
7 *345:6 7.54897e-05
8 *345:7 7.54897e-05

*RES
1 *345:5 *490:A 1.01999998
2 *345:5 *345:4 0.430499
3 *345:2 *345:4 1.01999998
4 *345:3 *345:2 0.717499
5 *345:7 *676:Y 1.01999998
6 *345:6 *345:3 1.01999998
7 *345:6 *345:7 0.286999
*END

*D_NET *346 0.00442659

*CONN
*I *720:Y O *C 58.425 25.215 *L 0 *D INVX4M
*I *699:A I *C 58.015 28.495 *L 0.00317 *D NAND2X2M
*I *696:B I *C 67.445 22.755 *L 0.00291 *D NAND2BX2M
*I *667:A1N I *C 62.525 34.645 *L 0.00131 *D OAI2BB1X2M
*I *665:A1N I *C 60.065 34.645 *L 0.00131 *D OAI2BB1X2M

*CAP
1 *720:Y 5.60314e-05
2 *699:A 5.60314e-05
3 *696:B 5.60314e-05
4 *667:A1N 5.60314e-05
5 *665:A1N 5.60314e-05
6 *346:5 9.07709e-05
7 *346:6 0.00015798
8 *346:7 0.000260189
9 *346:8 0.000210341
10 *346:9 0.000140206
11 *346:10 0.000147638
12 *346:11 8.8878e-05
13 *346:12 0.000120122
14 *346:13 0.000127583
15 *346:14 0.000124808
16 *346:15 0.000117352
17 *346:16 0.00038052
18 *346:17 0.00038052
19 *346:18 0.000182221
20 *346:19 0.0002733
21 *346:20 0.000156679
22 *346:21 0.000156679
23 *346:23 0.000170028
24 *346:24 0.000156342
25 *346:25 4.58529e-05
26 *346:26 0.000156342
27 *346:26 *80:19 0.00010002
28 *346:24 *80:20 0.00010002
29 *346:26 *80:20 2.008e-05
30 *346:24 *80:22 2.008e-05
31 *346:9 *80:15 7.951e-05
32 *346:10 *80:16 7.951e-05
33 *346:18 *80:15 4.185e-05
34 *346:19 *80:16 4.185e-05
35 *346:23 *80:5 9.59e-06
36 *346:7 *80:6 9.59000618e-06

*RES
1 *346:21 *696:B 1.02001
2 *346:21 *346:20 0.574013
3 *346:12 *346:20 1.02001
4 *346:13 *346:12 0.717509
5 *346:16 *346:13 0.143496
6 *346:17 *346:16 2.00900006
7 *346:17 *346:14 0.143496
8 *346:15 *346:14 0.430487
9 *346:11 *346:15 1.02001
10 *346:11 *346:6 0.574013
11 *346:6 *720:Y 1.02001
12 *346:6 *346:5 0.286991
13 *346:8 *346:5 0.143496
14 *346:7 *699:A 1.02001
15 *346:8 *346:7 0.574013
16 *346:7 *346:23 0.430487
17 *346:23 *346:19 0.574013
18 *346:19 *346:18 0.861004
19 *346:18 *346:10 0.143496
20 *346:9 *665:A1N 1.02001
21 *346:10 *346:9 0.861004
22 *346:24 *346:9 1.02001
23 *346:24 *346:26 0.861004
24 *346:25 *667:A1N 1.02001
25 *346:25 *346:26 1.02001
26 *346:22 *346:25 0.061647
*END

*D_NET *347 4.964e-05

*CONN
*I *667:Y O *C 63.345 33.415 *L 0 *D OAI2BB1X2M
*I *482:A I *C 64.165 34.235 *L 0.00276 *D BUFX4M

*CAP
1 *667:Y 2.482e-05
2 *482:A 2.482e-05

*RES
1 *667:Y *482:A 0.274114
*END

*D_NET *348 0.00103842

*CONN
*I *666:Y O *C 26.035 20.705 *L 0 *D OAI2BB1X2M
*I *621:A0 I *C 20.295 19.885 *L 0.00567 *D OAI21X4M

*CAP
1 *666:Y 5.60338e-05
2 *621:A0 5.60338e-05
3 *348:2 7.57296e-05
4 *348:3 7.57296e-05
5 *348:4 0.00036452
6 *348:5 0.00036452
7 *348:7 4.58494e-05

*RES
1 *348:3 *621:A0 1.02
2 *348:3 *348:2 0.286987
3 *348:5 *348:2 1.02
4 *348:5 *348:4 1.86549997
5 *348:7 *348:4 1.02
6 *348:7 *666:Y 1.02
7 *348:6 *348:7 0.204267
*END

*D_NET *349 0.000833951

*CONN
*I *665:Y O *C 60.885 33.415 *L 0 *D OAI2BB1X2M
*I *481:A I *C 62.935 31.365 *L 0.00276 *D BUFX4M

*CAP
1 *665:Y 5.60305e-05
2 *481:A 5.60305e-05
3 *349:2 0.000141099
4 *349:3 0.000141099
5 *349:5 0.000196919629
6 *349:6 0.000196919629
7 *349:7 4.58503e-05

*RES
1 *349:6 *665:Y 1.01999998
2 *349:5 *349:6 0.860999
3 *349:3 *349:5 1.01999998
4 *349:3 *349:2 0.573999
5 *349:7 *481:A 1.01999998
6 *349:7 *349:2 1.01999998
7 *349:4 *349:7 0.204277
*END

*D_NET *350 0.000608438

*CONN
*I *663:Y O *C 38.335 20.705 *L 0 *D NOR2X2M
*I *589:B0 I *C 40.385 19.885 *L 0.00123 *D AO22XLM

*CAP
1 *663:Y 5.60306e-05
2 *589:B0 5.60306e-05
3 *350:2 0.00017453
4 *350:3 9.65901e-05
5 *350:4 0.00022526

*RES
1 *350:3 *589:B0 1.01999998
2 *350:3 *350:4 0.286999
3 *350:2 *350:4 0.717499
4 *663:Y *350:2 1.01999998
*END

*D_NET *351 0.000669892

*CONN
*I *662:Y O *C 55.965 65.805 *L 0 *D AO22X2M
*I *615:D I *C 58.835 65.805 *L 0.00116 *D DFFRQX2M

*CAP
1 *662:Y 5.60291e-05
2 *615:D 5.60291e-05
3 *351:2 5.01105e-05
4 *351:3 5.01105e-05
5 *351:6 4.58506e-05
6 *351:7 0.00020588
7 *351:8 0.00020588

*RES
1 *351:3 *615:D 1.01999998
2 *351:5 *351:3 0.067532
3 *351:3 *351:2 0.1435
4 *351:8 *351:2 1.01999998
5 *351:7 *351:8 1.0045
6 *351:6 *351:7 1.01999998
7 *351:6 *662:Y 1.01999998
8 *351:4 *351:6 0.204277
*END

*D_NET *352 0.00206905

*CONN
*I *742:Y O *C 61.295 30.545 *L 0 *D INVX6M
*I *661:A1 I *C 68.265 25.625 *L 0.00595 *D OAI21X4M
*I *647:A1 I *C 66.625 28.495 *L 0.0117 *D OAI21X8M

*CAP
1 *742:Y 5.60276e-05
2 *661:A1 5.60276e-05
3 *647:A1 5.60276e-05
4 *352:3 8.09021e-05
5 *352:4 0.000143556
6 *352:5 0.000192478
7 *352:6 0.000131757
8 *352:7 0.000145048
9 *352:8 7.02316e-05
10 *352:9 0.00050673
11 *352:10 7.02316e-05
12 *352:11 0.00050673
13 *352:12 5.32904e-05

*RES
1 *352:12 *661:A1 1.02
2 *352:6 *352:12 0.143493
3 *352:6 *352:5 0.574002
4 *352:7 *352:5 0.430509
5 *352:4 *647:A1 1.02
6 *352:7 *352:4 0.286987
7 *352:4 *352:3 0.430509
8 *352:11 *352:3 1.02
9 *352:9 *352:11 1.86549997
10 *352:10 *742:Y 1.02
11 *352:8 *352:9 1.02
12 *352:8 *352:10 0.286987
*END

*D_NET *353 0.000497298

*CONN
*I *661:Y O *C 69.085 26.445 *L 0 *D OAI21X4M
*I *461:A I *C 71.955 25.625 *L 0.00166 *D BUFX2M

*CAP
1 *661:Y 5.60288e-05
2 *461:A 5.60288e-05
3 *353:2 4.87492e-05
4 *353:3 0.000116898
5 *353:4 7.57208e-05
6 *353:5 0.00014387

*RES
1 *353:4 *461:A 1.01999998
2 *353:4 *353:5 0.286999
3 *353:3 *353:5 0.430499
4 *353:2 *353:3 0.1435
5 *661:Y *353:2 1.01999998
*END

*D_NET *354 0.00130265

*CONN
*I *764:Y O *C 48.995 29.315 *L 0 *D NAND2X2M
*I *520:A I *C 52.275 25.625 *L 0.00499 *D BUFX8M

*CAP
1 *764:Y 5.60291e-05
2 *520:A 5.60291e-05
3 *354:2 0.00031695
4 *354:3 0.00031695
5 *354:4 0.000255422
6 *354:5 0.000255422
7 *354:7 4.58486e-05

*RES
1 *354:3 *520:A 1.02
2 *354:3 *354:2 1.29149997
3 *354:4 *354:2 1.02
4 *354:5 *354:4 1.148
5 *354:7 *354:5 1.02
6 *354:7 *764:Y 1.02
7 *354:6 *354:7 0.0349991
*END

*D_NET *355 0.000673098

*CONN
*I *660:Y O *C 52.275 33.415 *L 0 *D OAI21X4M
*I *453:A I *C 54.325 34.235 *L 0.00166 *D BUFX2M

*CAP
1 *660:Y 5.60295e-05
2 *453:A 5.60295e-05
3 *355:2 0.00019076
4 *355:3 6.18876e-05
5 *355:4 0.00021863
6 *355:5 8.97606e-05

*RES
1 *355:5 *453:A 1.01999998
2 *355:4 *355:5 0.430499
3 *355:3 *660:Y 1.01999998
4 *355:2 *355:4 0.717499
5 *355:2 *355:3 0.1435
*END

*D_NET *356 0.00114466

*CONN
*I *659:Y O *C 58.835 71.955 *L 0 *D NAND3BX2M
*I *489:A I *C 63.755 74.415 *L 0.00166 *D BUFX2M

*CAP
1 *659:Y 5.6032e-05
2 *489:A 5.6032e-05
3 *356:2 0.000111167
4 *356:3 0.000111167
5 *356:4 0.00032296
6 *356:5 0.00032296
7 *356:6 8.21704e-05
8 *356:7 8.21704e-05

*RES
1 *356:2 *489:A 1.01999
2 *356:3 *356:2 0.430489
3 *356:4 *356:3 1.01999
4 *356:5 *356:4 1.57850003
5 *356:7 *356:5 1.01999
6 *356:6 *356:7 0.287009
7 *659:Y *356:6 1.01999
*END

*D_NET *357 0.000730521

*CONN
*I *658:Y O *C 32.185 33.415 *L 0 *D OAI2BB1X2M
*I *619:B0 I *C 30.545 30.955 *L 0.00251 *D OAI2BB1X2M

*CAP
1 *658:Y 5.60301e-05
2 *619:B0 5.60301e-05
3 *357:2 5.74019e-05
4 *357:3 0.000155909
5 *357:4 0.00025183
6 *357:5 0.000153319

*RES
1 *357:5 *658:Y 1.01999998
2 *357:4 *357:5 0.573999
3 *357:3 *357:4 0.573999
4 *357:2 *357:3 0.286999
5 *619:B0 *357:2 1.01999998
*END

*D_NET *358 0.00057566

*CONN
*I *772:Y O *C 51.045 29.315 *L 0 *D NAND2X2M
*I *510:A I *C 51.865 31.365 *L 0.00276 *D BUFX4M

*CAP
1 *772:Y 5.60296e-05
2 *510:A 5.60296e-05
3 *358:2 8.09908e-05
4 *358:3 0.000118781
5 *358:4 0.000150809189
6 *358:5 0.000113019

*RES
1 *358:5 *510:A 1.01999998
2 *358:4 *358:5 0.430499
3 *358:3 *358:4 0.286999
4 *358:2 *358:3 0.286999
5 *772:Y *358:2 1.01999998
*END

*D_NET *359 4.964e-05

*CONN
*I *704:Y O *C 54.735 30.545 *L 0 *D NAND2X2M
*I *480:A I *C 55.555 31.365 *L 0.0058 *D BUFX10M

*CAP
1 *704:Y 2.482e-05
2 *480:A 2.482e-05

*RES
1 *704:Y *480:A 0.274114
*END

*D_NET *360 0.00050088

*CONN
*I *657:Y O *C 69.905 33.415 *L 0 *D OAI21X4M
*I *433:A I *C 72.775 34.235 *L 0.00166 *D BUFX2M

*CAP
1 *657:Y 5.6031e-05
2 *433:A 5.6031e-05
3 *360:2 0.000114768
4 *360:3 4.66203e-05
5 *360:4 0.00014779
6 *360:5 7.96399e-05

*RES
1 *360:5 *433:A 1.01999998
2 *360:4 *360:5 0.286999
3 *360:3 *657:Y 1.01999998
4 *360:2 *360:4 0.430499
5 *360:2 *360:3 0.1435
*END

*D_NET *361 0.000777112

*CONN
*I *656:Y O *C 69.905 19.065 *L 0 *D NAND2X2M
*I *625:B0 I *C 72.775 22.755 *L 0.00579 *D OAI21X4M

*CAP
1 *656:Y 0.000130099
2 *625:B0 5.60308e-05
3 *361:2 0.00016224
4 *361:3 5.713e-05
5 *361:4 6.45593e-05
6 *361:5 0.000157242
7 *361:6 0.00014981

*RES
1 *361:6 *625:B0 1.02
2 *361:5 *361:6 0.717492
3 *361:4 *361:5 0.143507
4 *361:3 *361:4 0.143507
5 *361:2 *361:3 1.02
6 *656:Y *361:2 1.37057137
*END

*D_NET *362 0.00506369

*CONN
*I *738:Y O *C 56.375 57.605 *L 0 *D OR2X4M
*I *722:A I *C 58.835 57.195 *L 0.00127 *D INVXLM
*I *655:A I *C 52.275 57.605 *L 0.00195 *D AND4X2M
*I *501:A I *C 29.315 57.195 *L 0.00499 *D BUFX8M

*CAP
1 *738:Y 2.51432e-05
2 *722:A 5.60422e-05
3 *655:A 5.60422e-05
4 *501:A 4.96085e-05
5 *362:4 5.87974e-05
6 *362:5 5.87974e-05
7 *362:6 6.73227e-05
8 *362:7 6.73227e-05
9 *362:8 4.66225e-05
10 *362:9 4.66225e-05
11 *362:12 8.60323e-05
12 *362:13 0.000816124
13 *362:14 8.17336e-05
14 *362:15 8.60323e-05
15 *362:16 0.00094536
16 *362:17 0.000610088
17 *362:18 0.000606597
18 *362:19 6.38751e-05
19 *362:20 0.000294896
20 *362:21 0.000169151
21 *362:21 *1:126 3.43e-06
22 *362:20 *1:127 3.43e-06
23 *362:21 *1:124 8.03e-06
24 *362:20 *1:122 8.03e-06
25 *362:21 *1:122 4.71e-05
26 *362:20 *1:123 4.71e-05
27 *362:20 *1:122 6.551e-05
28 *362:18 *1:123 6.551e-05
29 *362:18 *1:122 0.00014017
30 *362:17 *1:123 0.00014017
31 *362:18 *1:123 1.903e-05
32 *362:17 *1:128 1.903e-05
33 *362:16 *1:119 4.418e-05
34 *362:13 *1:120 4.418e-05
35 *362:16 *1:120 4.393e-05
36 *362:13 *1:121 4.393e-05
37 *362:15 *1:129 1.438e-05
38 *362:12 *1:130 1.43800062e-05

*RES
1 *501:A *362:14 0.548241
2 *362:15 *362:14 1.02002
3 *362:12 *362:15 0.430526
4 *362:7 *722:A 1.02002
5 *362:19 *738:Y 0.274121
6 *362:13 *362:12 1.02002
7 *362:7 *362:6 0.286996
8 *362:11 *362:9 0.0675284
9 *362:9 *362:19 1.02002
10 *362:13 *362:16 4.30499983
11 *362:21 *362:6 1.02002
12 *362:9 *362:8 0.143531
13 *362:16 *362:17 0.717522
14 *362:20 *362:21 1.00452
15 *362:20 *362:8 1.02002
16 *362:17 *362:18 3.44401
17 *362:18 *362:20 1.29151
18 *362:4 *362:18 1.02002
19 *362:5 *655:A 1.02002
20 *362:5 *362:4 0.143531
21 *362:10 *362:5 0.0675284
*END

*D_NET *363 0.000478079

*CONN
*I *697:Y O *C 31.775 46.535 *L 0 *D NOR2X4M
*I *488:A I *C 30.135 45.715 *L 0.00166 *D BUFX2M

*CAP
1 *697:Y 5.30805e-05
2 *488:A 5.60294e-05
3 *363:2 0.000115649902
4 *363:3 7.78605e-05
5 *363:4 9.18105e-05
6 *363:5 8.36488e-05

*RES
1 *363:4 *697:Y 0.548225
2 *363:5 *363:4 1.01999998
3 *363:2 *363:5 0.286999
4 *363:3 *363:2 0.286999
5 *488:A *363:3 1.01999998
*END

*D_NET *364 0.000644825

*CONN
*I *653:Y O *C 28.495 48.995 *L 0 *D AO21XLM
*I *618:D I *C 26.855 51.455 *L 0.00116 *D DFFRQX2M

*CAP
1 *653:Y 5.60312e-05
2 *618:D 5.60312e-05
3 *364:2 0.000168833
4 *364:3 7.03225e-05
5 *364:4 9.75498e-05
6 *364:5 0.00019606

*RES
1 *364:4 *653:Y 1.01999998
2 *364:3 *618:D 1.01999998
3 *364:4 *364:5 0.430499
4 *364:2 *364:3 0.286999
5 *364:2 *364:5 0.573999
*END

*D_NET *365 0.00575235

*CONN
*I *703:Y O *C 52.685 72.365 *L 0 *D CLKAND2X6M
*I *662:A0 I *C 53.915 65.805 *L 0.00187 *D AO22X2M
*I *659:B I *C 58.425 71.135 *L 0.00302 *D NAND3BX2M
*I *652:A I *C 62.935 77.285 *L 0.00845 *D NAND4X6M
*I *637:D I *C 54.735 78.105 *L 0.00103 *D SDFFRQX2M

*CAP
1 *703:Y 5.60245e-05
2 *662:A0 5.60245e-05
3 *659:B 5.60245e-05
4 *652:A 5.60245e-05
5 *637:D 5.60245e-05
6 *365:5 0.000156213
7 *365:6 0.000156213
8 *365:7 0.000460707
9 *365:8 0.000379914
10 *365:9 0.000230973
11 *365:10 0.000230973
12 *365:11 5.20336e-05
13 *365:12 5.94264e-05
14 *365:13 0.000152638
15 *365:14 0.000145255
16 *365:15 0.000343418
17 *365:16 0.000343418
18 *365:18 0.000478214
19 *365:19 0.000378462
20 *365:20 0.000637452
21 *365:21 0.000205088
22 *365:22 9.50395e-05
23 *365:23 0.0006655
24 *365:24 0.000301295

*RES
1 *365:6 *662:A0 1.01999
2 *365:11 *652:A 1.01999
3 *365:6 *365:5 0.573991
4 *365:12 *365:11 0.143498
5 *365:16 *365:5 1.01999
6 *365:12 *365:9 0.143498
7 *365:16 *365:15 1.57851
8 *365:10 *365:9 0.860987
9 *365:8 *365:15 1.01999
10 *365:13 *365:10 0.143498
11 *365:7 *659:B 1.01999
12 *365:8 *365:7 1.43501
13 *365:14 *365:13 0.717489
14 *365:7 *365:22 0.286996
15 *365:24 *365:14 1.01999
16 *365:23 *365:22 1.01999
17 *365:23 *365:24 1.57851
18 *365:21 *637:D 1.01999
19 *365:19 *365:23 2.15249991
20 *365:20 *365:21 0.860987
21 *365:18 *365:19 1.01999
22 *365:18 *365:20 2.009
23 *365:18 *703:Y 1.01999
24 *365:17 *365:18 0.20426
*END

*D_NET *366 0.000680974

*CONN
*I *652:Y O *C 58.835 77.695 *L 0 *D NAND4X6M
*I *487:A I *C 56.785 77.285 *L 0.00166 *D BUFX2M

*CAP
1 *652:Y 5.60306e-05
2 *487:A 5.60306e-05
3 *366:2 7.57319e-05
4 *366:3 7.57319e-05
5 *366:4 0.0001858
6 *366:5 0.0001858
7 *366:7 4.58497e-05

*RES
1 *366:3 *487:A 1.01999998
2 *366:3 *366:2 0.286999
3 *366:5 *366:2 1.01999998
4 *366:5 *366:4 0.860999
5 *366:7 *366:4 1.01999998
6 *366:7 *652:Y 1.01999998
7 *366:6 *366:7 0.204277
*END

*D_NET *367 0.0022599

*CONN
*I *797:Y O *C 37.105 20.705 *L 0 *D NAND2X4M
*I *767:A I *C 31.775 17.425 *L 0.00584 *D NOR2X4M
*I *650:B I *C 26.855 17.015 *L 0.00223 *D OR3X2M
*I *623:A1N I *C 33.825 19.065 *L 0.000978 *D OAI2BB1X1M

*CAP
1 *797:Y 5.60303e-05
2 *767:A 5.60303e-05
3 *650:B 5.60303e-05
4 *623:A1N 5.60303e-05
5 *367:4 0.000168519
6 *367:5 0.000168519
7 *367:6 0.000101279
8 *367:7 0.000101279
9 *367:10 4.58501e-05
10 *367:11 0.00025013
11 *367:12 0.00025759
12 *367:13 0.000124469
13 *367:14 4.58501e-05
14 *367:15 0.000202503
15 *367:16 0.00010721
16 *367:17 5.88524e-05
17 *367:18 0.000220419
18 *367:19 0.00018329

*RES
1 *367:4 *797:Y 1.02
2 *367:6 *623:A1N 1.02
3 *367:5 *367:4 0.861007
4 *367:7 *367:6 0.430493
5 *367:19 *367:5 1.02
6 *367:18 *367:7 1.02
7 *367:18 *367:19 0.717502
8 *367:17 *367:18 0.143504
9 *367:14 *767:A 1.02
10 *367:9 *367:14 0.20428
11 *367:16 *367:17 0.143504
12 *367:15 *367:14 1.02
13 *367:15 *367:16 0.573998
14 *367:13 *367:15 0.430493
15 *367:12 *367:13 0.143504
16 *367:11 *367:12 1.29149997
17 *367:10 *650:B 1.02
18 *367:10 *367:11 1.02
19 *367:8 *367:10 0.20428
*END

*D_NET *368 0.000491419

*CONN
*I *698:Y O *C 29.725 19.065 *L 0 *D NAND2X2M
*I *475:A I *C 30.955 19.885 *L 0.00276 *D BUFX4M

*CAP
1 *698:Y 5.60286e-05
2 *475:A 5.60286e-05
3 *368:2 9.87193e-05
4 *368:3 0.00016675
5 *368:4 0.000113892

*RES
1 *368:2 *475:A 1.01999998
2 *368:3 *368:2 0.286999
3 *368:4 *368:3 0.430499
4 *698:Y *368:4 1.01999998
*END

*D_NET *369 4.964e-05

*CONN
*I *650:Y O *C 28.085 17.835 *L 0 *D OR3X2M
*I *426:A I *C 28.495 17.015 *L 0.00235 *D CLKBUFX6M

*CAP
1 *650:Y 2.482e-05
2 *426:A 2.482e-05

*RES
1 *650:Y *426:A 0.274114
*END

*D_NET *370 0.00170994

*CONN
*I *692:Y O *C 44.075 39.565 *L 0 *D CLKINVX4M
*I *649:D I *C 48.995 37.105 *L 0.00116 *D DFFRQX2M
*I *585:B I *C 44.075 34.235 *L 0.00611 *D NOR2BX4M

*CAP
1 *692:Y 5.6026e-05
2 *649:D 5.6026e-05
3 *585:B 5.6026e-05
4 *370:4 0.000216993
5 *370:5 0.000345842
6 *370:6 0.000358211094
7 *370:7 0.000143088
8 *370:8 5.97592e-05
9 *370:9 5.97592e-05
10 *370:10 0.000358211094

*RES
1 *370:4 *585:B 1.01999
2 *370:7 *692:Y 1.01999
3 *370:4 *370:5 1.14801
4 *370:5 *370:7 0.717509
5 *370:6 *370:5 1.01999
6 *370:6 *370:10 1.722
7 *370:9 *370:10 1.01999
8 *370:8 *649:D 1.01999
9 *370:8 *370:9 0.143491
10 *370:3 *370:8 0.0675284
*END

*D_NET *371 0.000891462

*CONN
*I *647:Y O *C 69.085 27.675 *L 0 *D OAI21X8M
*I *603:D I *C 73.185 28.495 *L 0.00116 *D DFFRQX2M

*CAP
1 *647:Y 5.60292e-05
2 *603:D 5.60292e-05
3 *371:2 0.00029415
4 *371:3 0.00029415
5 *371:5 4.58494e-05
6 *371:6 7.26275e-05
7 *371:7 7.26275e-05

*RES
1 *371:7 *603:D 1.02
2 *371:6 *371:7 0.286996
3 *371:2 *371:6 1.02
4 *371:3 *371:2 1.43499994
5 *371:5 *371:3 1.02
6 *371:5 *647:Y 1.02
7 *371:4 *371:5 0.204271
*END

*D_NET *372 0.00010924

*CONN
*I *778:Y O *C 53.095 27.675 *L 0 *D NAND2BX2M
*I *509:A I *C 54.325 28.495 *L 0.00499 *D BUFX8M

*CAP
1 *778:Y 5.462e-05
2 *509:A 5.462e-05

*RES
1 *778:Y *509:A 0.548229
*END

*D_NET *373 0.00147328

*CONN
*I *646:Y O *C 61.295 21.935 *L 0 *D OAI21X8M
*I *604:D I *C 60.065 14.145 *L 0.00116 *D DFFRQX2M

*CAP
1 *646:Y 5.60314e-05
2 *604:D 5.60314e-05
3 *373:2 0.000102901
4 *373:3 0.00011033
5 *373:4 0.000178636
6 *373:5 0.000277151
7 *373:6 0.00039164
8 *373:7 0.000300559

*RES
1 *373:2 *646:Y 1.02
2 *373:3 *373:2 0.430504
3 *373:3 *373:7 0.143509
4 *373:6 *373:7 1.43499994
5 *373:5 *373:6 0.573991
6 *373:4 *373:5 0.861009
7 *604:D *373:4 1.02
*END

*D_NET *374 0.000517038

*CONN
*I *645:Y O *C 46.535 73.595 *L 0 *D OAI21X4M
*I *464:A I *C 49.405 74.415 *L 0.00166 *D BUFX2M

*CAP
1 *645:Y 5.60298e-05
2 *464:A 5.60298e-05
3 *374:2 6.18889e-05
4 *374:3 0.000130038
5 *374:4 0.0001406
6 *374:5 7.24508e-05

*RES
1 *374:5 *464:A 1.01999998
2 *374:4 *374:5 0.286999
3 *374:2 *645:Y 1.01999998
4 *374:3 *374:4 0.430499
5 *374:3 *374:2 0.1435
*END

*D_NET *375 0.000778291

*CONN
*I *644:Y O *C 69.905 32.185 *L 0 *D OAI21X8M
*I *611:D I *C 74.005 31.365 *L 0.00116 *D DFFRQX2M

*CAP
1 *644:Y 5.60328e-05
2 *611:D 5.60328e-05
3 *375:3 4.58477e-05
4 *375:4 0.00024414
5 *375:5 6.60502e-05
6 *375:6 6.60502e-05
7 *375:7 0.00024414

*RES
1 *375:5 *611:D 1.02
2 *375:5 *375:6 0.286996
3 *375:7 *375:6 1.02
4 *375:4 *375:7 1.43499994
5 *375:3 *375:4 1.02
6 *375:3 *644:Y 1.02
7 *375:2 *375:3 0.204271
*END

*D_NET *376 0.000405302

*CONN
*I *643:Y O *C 30.955 59.655 *L 0 *D OAI2BB1X1M
*I *508:A I *C 31.365 57.195 *L 0.00166 *D BUFX2M

*CAP
1 *643:Y 5.60309e-05
2 *508:A 5.60309e-05
3 *376:2 5.19198e-05
4 *376:3 4.44909e-05
5 *376:4 9.47011e-05
6 *376:5 0.00010213

*RES
1 *376:4 *508:A 1.01999998
2 *376:4 *376:5 0.717499
3 *376:3 *643:Y 1.01999998
4 *376:2 *376:5 0.1435
5 *376:2 *376:3 0.1435
*END

*D_NET *377 0.00152612

*CONN
*I *706:Y O *C 50.635 66.625 *L 0 *D OAI2BB1X4M
*I *680:A I *C 47.355 71.545 *L 0.00313 *D NAND3X2M
*I *500:A I *C 48.585 68.675 *L 0.00499 *D BUFX8M

*CAP
1 *706:Y 5.60305e-05
2 *680:A 5.60305e-05
3 *500:A 5.60305e-05
4 *377:3 0.0003527
5 *377:4 0.00021268
6 *377:6 0.00013847
7 *377:7 7.03193e-05
8 *377:8 0.000157801
9 *377:9 0.000222411
10 *377:10 4.58534e-05
11 *377:11 0.000157801

*RES
1 *377:7 *680:A 1.01999998
2 *377:6 *377:7 0.286999
3 *377:6 *377:9 0.430499
4 *377:3 *500:A 1.01999998
5 *377:3 *377:9 0.717499
6 *377:4 *377:3 0.717499
7 *377:8 *377:4 1.01999998
8 *377:8 *377:11 0.717499
9 *377:10 *377:11 1.01999998
10 *377:10 *706:Y 1.01999998
11 *377:5 *377:10 0.0350034
*END

*D_NET *378 0.0004855

*CONN
*I *642:Y O *C 38.745 73.595 *L 0 *D OAI21X4M
*I *452:A I *C 41.615 74.415 *L 0.00166 *D BUFX2M

*CAP
1 *642:Y 5.60298e-05
2 *452:A 5.60298e-05
3 *378:2 0.00011854
4 *378:3 5.03902e-05
5 *378:4 0.00013633
6 *378:5 6.81806e-05

*RES
1 *378:5 *452:A 1.01999998
2 *378:4 *378:5 0.286999
3 *378:3 *642:Y 1.01999998
4 *378:2 *378:4 0.430499
5 *378:2 *378:3 0.1435
*END

*D_NET *379 0.000480882

*CONN
*I *641:Y O *C 38.745 67.855 *L 0 *D OAI21X4M
*I *437:A I *C 41.615 68.675 *L 0.00166 *D BUFX2M

*CAP
1 *641:Y 5.60308e-05
2 *437:A 5.60308e-05
3 *379:4 4.58505e-05
4 *379:5 0.00013856
5 *379:6 4.58505e-05
6 *379:7 0.00013856

*RES
1 *379:6 *437:A 1.01999998
2 *379:3 *379:6 0.204277
3 *379:7 *379:6 1.01999998
4 *379:5 *379:7 0.430499
5 *379:4 *379:5 1.01999998
6 *379:4 *641:Y 1.01999998
7 *379:2 *379:4 0.204277
*END

*D_NET *380 0.000421059

*CONN
*I *686:Y O *C 74.415 76.465 *L 0 *D NOR2X4M
*I *430:A I *C 75.645 77.285 *L 0.00166 *D BUFX2M

*CAP
1 *686:Y 2.7929e-05
2 *430:A 5.60293e-05
3 *380:2 6.66595e-05
4 *380:3 8.35694e-05
5 *380:4 0.00011229
6 *380:5 7.45807e-05

*RES
1 *380:5 *430:A 1.01999998
2 *380:4 *380:5 0.286999
3 *380:3 *380:4 0.286999
4 *380:2 *380:3 1.01999998
5 *686:Y *380:2 0.274113
*END

*D_NET *381 0.000795497

*CONN
*I *640:Y O *C 73.185 71.135 *L 0 *D AO21X1M
*I *606:A I *C 70.725 68.675 *L 0.00312 *D NOR2X2M

*CAP
1 *640:Y 5.60276e-05
2 *606:A 5.60276e-05
3 *381:2 0.000112407
4 *381:3 0.0002714
5 *381:4 0.000229312
6 *381:5 7.03192e-05

*RES
1 *381:5 *640:Y 1.01999998
2 *381:4 *381:5 0.286999
3 *381:3 *381:4 0.860999
4 *381:2 *381:3 0.717499
5 *606:A *381:2 1.01999998
*END

*D_NET *382 0.000745379

*CONN
*I *699:Y O *C 58.015 29.315 *L 0 *D NAND2X2M
*I *479:A I *C 59.245 25.625 *L 0.00576 *D INVX4M

*CAP
1 *699:Y 5.60291e-05
2 *479:A 5.60291e-05
3 *382:2 0.000177900488
4 *382:3 0.000140111
5 *382:4 0.000138759
6 *382:5 0.000176551

*RES
1 *382:4 *479:A 1.01999998
2 *382:4 *382:5 0.573999
3 *382:3 *699:Y 1.01999998
4 *382:2 *382:5 0.286999
5 *382:2 *382:3 0.430499
*END

*D_NET *383 0.00076722

*CONN
*I *818:D I *C 60.065 19.885 *L 0.00115 *D DFFRX1M
*I *638:Y O *C 57.195 21.935 *L 0 *D OAI21X6M

*CAP
1 *818:D 5.60289e-05
2 *638:Y 5.60289e-05
3 *383:2 0.000255622
4 *383:3 6.60495e-05
5 *383:4 7.19596e-05
6 *383:5 0.000261528086

*RES
1 *383:4 *818:D 1.01999998
2 *383:4 *383:5 0.430499
3 *383:3 *638:Y 1.01999998
4 *383:2 *383:5 1.0045
5 *383:2 *383:3 0.286999
*END

*D_NET *384 0.0005048

*CONN
*I *707:Y O *C 38.335 42.025 *L 0 *D OR2X2M
*I *477:A I *C 38.745 39.975 *L 0.00418 *D CLKBUFX12M

*CAP
1 *707:Y 5.60299e-05
2 *477:A 5.60299e-05
3 *384:2 0.000102350234
4 *384:3 9.49194e-05
5 *384:4 9.40198e-05
6 *384:5 0.000101451

*RES
1 *384:4 *477:A 1.01999998
2 *384:4 *384:5 0.430499
3 *384:3 *707:Y 1.01999998
4 *384:2 *384:5 0.1435
5 *384:2 *384:3 0.286999
*END

*D_NET *385 0.00049884

*CONN
*I *626:Y O *C 29.725 27.675 *L 0 *D OAI21X4M
*I *435:A I *C 32.595 28.495 *L 0.00166 *D BUFX2M

*CAP
1 *626:Y 5.60295e-05
2 *435:A 5.60295e-05
3 *385:2 7.87409e-05
4 *385:3 0.00014677
5 *385:4 0.00011465
6 *385:5 4.66211e-05

*RES
1 *385:2 *435:A 1.01999998
2 *385:3 *385:2 0.286999
3 *385:5 *626:Y 1.01999998
4 *385:4 *385:3 0.430499
5 *385:4 *385:5 0.1435
*END

*D_NET *386 0.00014884

*CONN
*I *625:Y O *C 71.545 21.935 *L 0 *D OAI21X4M
*I *442:A I *C 74.415 22.755 *L 0.00127 *D INVXLM

*CAP
1 *625:Y 7.442e-05
2 *442:A 7.442e-05

*RES
1 *625:Y *442:A 0.822343
*END

*D_NET *387 0.00111863

*CONN
*I *816:D I *C 51.455 80.155 *L 0.00115 *D DFFRX1M
*I *624:Y O *C 57.195 83.845 *L 0 *D OAI2BB1X2M

*CAP
1 *816:D 5.60299e-05
2 *624:Y 8.37687e-05
3 *387:2 0.000107779
4 *387:3 0.000115909
5 *387:4 0.000107779
6 *387:5 0.000115709
7 *387:6 0.00020797
8 *387:7 0.000115709
9 *387:8 0.00020797

*RES
1 *387:7 *624:Y 0.822347
2 *387:7 *387:8 0.274106
3 *387:6 *387:8 1.9188
4 *387:5 *387:6 0.274106
5 *387:3 *387:5 0.822347
6 *387:4 *387:3 1.02001
7 *387:2 *387:4 0.717501
8 *816:D *387:2 1.02001
*END

*D_NET *388 0.00056276

*CONN
*I *823:B0 I *C 34.235 17.015 *L 0.00187 *D AO2B2X2M
*I *623:Y O *C 35.055 19.475 *L 0 *D OAI2BB1X1M

*CAP
1 *823:B0 5.60303e-05
2 *623:Y 5.60303e-05
3 *388:2 0.00012072
4 *388:3 8.30105e-05
5 *388:4 0.00014234
6 *388:5 0.00010463

*RES
1 *388:5 *623:Y 1.01999998
2 *388:4 *388:5 0.430499
3 *388:2 *388:4 0.286999
4 *388:3 *388:2 0.430499
5 *823:B0 *388:3 1.01999998
*END

*D_NET *389 0.00206124

*CONN
*I *810:D I *C 64.575 68.675 *L 0.00115 *D DFFRX1M
*I *622:Y O *C 62.525 80.565 *L 0 *D OAI2BB1X1M

*CAP
1 *810:D 5.6036e-05
2 *622:Y 5.6036e-05
3 *389:2 0.000105326
4 *389:3 0.000173356
5 *389:4 0.000180111
6 *389:5 0.000210432
7 *389:6 0.000621121
8 *389:7 0.00065883

*RES
1 *389:6 *810:D 1.01998
2 *389:6 *389:7 2.72650003
3 *389:4 *389:7 0.28702
4 *389:4 *389:5 0.717487
5 *389:2 *622:Y 1.01998
6 *389:3 *389:5 0.430509
7 *389:3 *389:2 0.430509
*END

*D_NET *390 0.000832137

*CONN
*I *621:Y O *C 20.705 20.705 *L 0 *D OAI21X4M
*I *451:A I *C 24.805 19.885 *L 0.00127 *D INVXLM

*CAP
1 *621:Y 5.60306e-05
2 *451:A 5.60306e-05
3 *390:2 0.000261089512
4 *390:3 0.000101862
5 *390:4 9.89499e-05
6 *390:5 0.000258181

*RES
1 *390:4 *451:A 1.01999998
2 *390:4 *390:5 0.430499
3 *390:2 *390:5 0.860999
4 *390:3 *390:2 0.286999
5 *621:Y *390:3 1.01999998
*END

*D_NET *391 0.000717169

*CONN
*I *664:Y O *C 31.365 23.575 *L 0 *D AND2X2M
*I *427:A I *C 33.005 25.625 *L 0.00276 *D BUFX4M

*CAP
1 *664:Y 5.60304e-05
2 *427:A 5.60304e-05
3 *391:2 0.00015057
4 *391:3 0.00015057
5 *391:4 0.00012906
6 *391:5 0.00012906
7 *391:7 4.58499e-05

*RES
1 *391:4 *427:A 1.01999998
2 *391:5 *391:4 0.717499
3 *391:2 *391:5 1.01999998
4 *391:3 *391:2 0.573999
5 *391:7 *391:3 1.01999998
6 *391:7 *664:Y 1.01999998
7 *391:6 *391:7 0.0350034
*END

*D_NET *392 0.000851944

*CONN
*I *620:Y O *C 37.105 21.935 *L 0 *D OAI21X6M
*I *434:A I *C 38.745 25.625 *L 0.00166 *D BUFX2M

*CAP
1 *620:Y 5.60304e-05
2 *434:A 5.60304e-05
3 *392:2 5.03888e-05
4 *392:3 0.000148738
5 *392:4 0.00031955
6 *392:5 0.000221201

*RES
1 *392:5 *434:A 1.02
2 *392:4 *392:5 1.148
3 *392:3 *392:4 0.574
4 *392:2 *392:3 0.1435
5 *620:Y *392:2 1.02
*END

*D_NET *393 0.00162932

*CONN
*I *619:Y O *C 30.955 32.185 *L 0 *D OAI2BB1X2M
*I *498:A I *C 40.385 31.365 *L 0.0017 *D CLKBUFX2M

*CAP
1 *619:Y 0.000123357
2 *498:A 5.60306e-05
3 *393:2 0.00060137
4 *393:3 0.00060137
5 *393:6 0.000155493
6 *393:7 4.58449e-05
7 *393:8 4.58449e-05

*RES
1 *393:8 *498:A 1.01998
2 *393:5 *393:8 0.20428
3 *393:2 *393:8 1.01998
4 *393:3 *393:2 2.58299994
5 *619:Y *393:6 1.09644
6 *393:7 *393:3 1.01998
7 *393:7 *393:6 1.01998
8 *393:4 *393:7 0.20428
*END

*D_NET *394 0.00069548

*CONN
*I *612:Y O *C 45.715 20.705 *L 0 *D NAND2BX2M
*I *507:A I *C 47.355 17.015 *L 0.00166 *D BUFX2M

*CAP
1 *612:Y 5.60304e-05
2 *507:A 5.60304e-05
3 *394:2 0.0001165
4 *394:3 4.84698e-05
5 *394:4 0.00017521
6 *394:5 0.00024324

*RES
1 *394:4 *507:A 1.01999998
2 *394:4 *394:5 0.573999
3 *394:3 *612:Y 1.01999998
4 *394:2 *394:5 0.430499
5 *394:2 *394:3 0.1435
*END

*D_NET *395 0.00215303

*CONN
*I *654:Y O *C 28.905 43.665 *L 0 *D NAND2BX4M
*I *610:A0 I *C 24.395 48.585 *L 0.00187 *D AO22X2M
*I *608:A1N I *C 20.705 42.845 *L 0.00611 *D OAI2BB2X8M

*CAP
1 *654:Y 5.60301e-05
2 *610:A0 5.60301e-05
3 *608:A1N 5.60301e-05
4 *395:3 4.66157e-05
5 *395:4 4.66157e-05
6 *395:5 0.000183994
7 *395:6 0.000176532
8 *395:7 0.000317528
9 *395:8 0.00039856
10 *395:11 0.000102749
11 *395:12 0.000333243
12 *395:13 0.000333243
13 *395:14 4.58495e-05

*RES
1 *395:13 *610:A0 1.02
2 *395:10 *395:14 0.0350123
3 *395:14 *654:Y 1.02
4 *395:12 *395:13 1.72201
5 *395:7 *395:14 1.02
6 *395:8 *395:12 1.02
7 *395:8 *395:7 1.86549997
8 *395:11 *395:8 0.430509
9 *395:5 *395:11 0.143493
10 *395:6 *395:5 0.860989
11 *395:3 *395:6 1.02
12 *395:4 *608:A1N 1.02
13 *395:4 *395:3 0.143493
14 *395:9 *395:4 0.0675196
*END

*D_NET *396 0.000776468

*CONN
*I *813:D I *C 25.215 51.455 *L 0.00115 *D DFFRX1M
*I *610:Y O *C 22.345 48.585 *L 0 *D AO22X2M

*CAP
1 *813:D 5.60283e-05
2 *610:Y 5.60283e-05
3 *396:2 0.000117979
4 *396:3 0.000117979
5 *396:4 0.0001913
6 *396:5 0.0001913
7 *396:7 4.58495e-05

*RES
1 *396:2 *813:D 1.01999998
2 *396:3 *396:2 0.717499
3 *396:4 *396:3 1.01999998
4 *396:5 *396:4 1.0045
5 *396:7 *396:5 1.01999998
6 *396:7 *610:Y 1.01999998
7 *396:6 *396:7 0.204277
*END

*D_NET *397 0.00164249

*CONN
*I *648:Y O *C 73.595 69.495 *L 0 *D NAND2X2M
*I *609:B0 I *C 75.645 68.675 *L 0.00168 *D OA21X2M
*I *597:A I *C 68.265 68.675 *L 0.00363 *D CLKXOR2X2M

*CAP
1 *648:Y 5.60268e-05
2 *609:B0 5.60268e-05
3 *597:A 5.60268e-05
4 *397:3 7.85383e-05
5 *397:4 7.85383e-05
6 *397:5 7.85383e-05
7 *397:6 7.85383e-05
8 *397:7 0.00055007
9 *397:8 0.000414011
10 *397:9 0.00015032
11 *397:11 4.58455e-05

*RES
1 *397:4 *597:A 1.02
2 *397:6 *609:B0 1.02
3 *397:4 *397:3 0.286987
4 *397:6 *397:5 0.286987
5 *397:8 *397:3 1.02
6 *397:9 *397:5 1.02
7 *397:8 *397:7 1.86549997
8 *397:7 *397:9 0.717496
9 *397:11 *397:7 1.02
10 *397:11 *648:Y 1.02
11 *397:10 *397:11 0.0350123
*END

*D_NET *398 0.000551199

*CONN
*I *609:Y O *C 76.875 69.495 *L 0 *D OA21X2M
*I *590:D I *C 76.875 71.545 *L 0.00116 *D DFFRQX2M

*CAP
1 *609:Y 5.60291e-05
2 *590:D 5.60291e-05
3 *398:2 0.00021957
4 *398:3 0.00021957

*RES
1 *398:3 *590:D 1.01999998
2 *398:2 *398:3 0.717499
3 *609:Y *398:2 1.01999998
*END

*D_NET *399 0.000489479

*CONN
*I *608:Y O *C 21.935 43.255 *L 0 *D OAI2BB2X8M
*I *460:A I *C 25.625 45.715 *L 0.00166 *D BUFX2M

*CAP
1 *608:Y 5.60289e-05
2 *460:A 5.60289e-05
3 *399:2 0.00012895
4 *399:3 0.00012152
5 *399:4 5.97595e-05
6 *399:5 6.71894e-05

*RES
1 *399:4 *608:Y 1.01999998
2 *399:3 *460:A 1.01999998
3 *399:4 *399:5 0.1435
4 *399:2 *399:3 0.573999
5 *399:2 *399:5 0.1435
*END

*D_NET *400 0.000517589

*CONN
*I *607:Y O *C 64.165 46.535 *L 0 *D NOR2X4M
*I *588:D I *C 64.985 48.585 *L 0.00116 *D DFFRQX2M

*CAP
1 *607:Y 5.308e-05
2 *588:D 5.60298e-05
3 *400:2 8.52186e-05
4 *400:3 0.00016163
5 *400:4 0.00016163

*RES
1 *400:4 *588:D 1.01999998
2 *400:3 *400:4 0.717499
3 *400:2 *400:3 1.01999998
4 *607:Y *400:2 0.548225
*END

*D_NET *401 9.92e-05

*CONN
*I *731:Y O *C 71.955 59.245 *L 0 *D AND3X2M
*I *506:A I *C 71.135 60.065 *L 0.00499 *D BUFX8M

*CAP
1 *731:Y 4.96e-05
2 *506:A 4.96e-05

*RES
1 *506:A *731:Y 0.548229
*END

*D_NET *402 0.000440721

*CONN
*I *606:Y O *C 70.315 67.855 *L 0 *D NOR2X2M
*I *467:A I *C 71.545 68.675 *L 0.00166 *D BUFX2M

*CAP
1 *606:Y 5.60314e-05
2 *467:A 5.60314e-05
3 *402:2 0.00011389
4 *402:3 0.0001414
5 *402:4 7.33701e-05

*RES
1 *402:4 *467:A 1.01999998
2 *402:3 *402:4 0.286999
3 *402:2 *402:3 0.430499
4 *606:Y *402:2 1.01999998
*END

*D_NET *403 0.000633819

*CONN
*I *599:Y O *C 43.255 16.195 *L 0 *D OAI21X4M
*I *448:A I *C 45.305 17.015 *L 0.00166 *D BUFX2M

*CAP
1 *599:Y 5.60306e-05
2 *448:A 5.60306e-05
3 *403:2 0.000190558
4 *403:3 6.18908e-05
5 *403:4 0.00019899
6 *403:5 7.03198e-05

*RES
1 *403:5 *448:A 1.01999998
2 *403:4 *403:5 0.430499
3 *403:3 *599:Y 1.01999998
4 *403:2 *403:4 0.717499
5 *403:2 *403:3 0.1435
*END

*D_NET *404 0.00140168

*CONN
*I *598:Y O *C 23.985 29.315 *L 0 *D AO21X2M
*I *586:D I *C 15.785 28.495 *L 0.00116 *D DFFRQX2M

*CAP
1 *598:Y 5.60288e-05
2 *586:D 5.60288e-05
3 *404:2 0.0005253
4 *404:3 0.0005253
5 *404:5 9.65875e-05
6 *404:6 9.65875e-05
7 *404:7 4.5849e-05

*RES
1 *404:6 *586:D 1.02002
2 *404:5 *404:6 0.287017
3 *404:3 *404:5 1.02002
4 *404:3 *404:2 2.86999989
5 *404:7 *404:2 1.02002
6 *404:7 *598:Y 1.02002
7 *404:4 *404:7 0.204249
*END

*D_NET *405 0.000684318

*CONN
*I *597:Y O *C 69.085 69.495 *L 0 *D CLKXOR2X2M
*I *587:A I *C 69.905 65.805 *L 0.00312 *D NOR2X2M

*CAP
1 *597:Y 5.60297e-05
2 *587:A 5.60297e-05
3 *405:2 0.000225492
4 *405:3 0.0002632
5 *405:4 8.35686e-05

*RES
1 *405:4 *587:A 1.02
2 *405:2 *597:Y 1.02
3 *405:3 *405:4 0.287009
4 *405:3 *405:2 1.29149997
*END

*D_NET *406 4.964e-05

*CONN
*I *655:Y O *C 49.815 56.785 *L 0 *D AND4X2M
*I *486:A I *C 49.405 57.195 *L 0.00276 *D BUFX4M

*CAP
1 *655:Y 2.482e-05
2 *486:A 2.482e-05

*RES
1 *486:A *655:Y 0.274114
*END

*D_NET *407 0.00111316

*CONN
*I *819:A I *C 34.235 57.605 *L 0.00144 *D OR2X1M
*I *593:Y O *C 35.055 51.455 *L 0 *D AO22X2M

*CAP
1 *819:A 5.60268e-05
2 *593:Y 5.60268e-05
3 *407:2 0.000107637
4 *407:3 6.98479e-05
5 *407:4 0.000392911
6 *407:5 0.0004307

*RES
1 *407:4 *593:Y 1.02
2 *407:3 *819:A 1.02
3 *407:4 *407:5 1.29149997
4 *407:2 *407:3 0.430493
5 *407:2 *407:5 0.287009
*END

*D_NET *408 0.000304781

*CONN
*I *591:Y O *C 38.745 34.235 *L 0 *D AOI2BB2X4M
*I *476:A I *C 39.975 37.105 *L 0.00166 *D BUFX2M

*CAP
1 *591:Y 5.6031e-05
2 *476:A 5.6031e-05
3 *408:2 9.636e-05
4 *408:3 9.636e-05

*RES
1 *408:3 *476:A 1.01999998
2 *408:2 *408:3 0.717499
3 *591:Y *408:2 1.01999998
*END

*D_NET *409 0.000346679

*CONN
*I *589:Y O *C 42.435 19.475 *L 0 *D AO22XLM
*I *472:A I *C 43.255 19.885 *L 0.00166 *D BUFX2M

*CAP
1 *589:Y 5.6029e-05
2 *472:A 5.6029e-05
3 *409:2 5.66699e-05
4 *409:3 9.43802148e-05
5 *409:4 8.35704e-05

*RES
1 *409:4 *472:A 1.01999998
2 *409:3 *409:4 0.286999
3 *409:2 *409:3 0.1435
4 *589:Y *409:2 1.01999998
*END

*D_NET *410 0.000544922

*CONN
*I *587:Y O *C 69.495 66.625 *L 0 *D NOR2X2M
*I *436:A I *C 70.725 65.805 *L 0.00166 *D BUFX2M

*CAP
1 *587:Y 5.60315e-05
2 *436:A 5.60315e-05
3 *410:2 0.000129921
4 *410:3 6.18891e-05
5 *410:4 8.65103e-05
6 *410:5 0.00015454

*RES
1 *410:4 *436:A 1.01999998
2 *410:4 *410:5 0.430499
3 *410:2 *410:5 0.430499
4 *410:3 *410:2 0.1435
5 *587:Y *410:3 1.01999998
*END

*D_NET *411 9.92e-05

*CONN
*I *585:Y O *C 44.485 34.645 *L 0 *D NOR2BX4M
*I *583:A I *C 45.305 34.235 *L 0.00239 *D CLKINVX2M

*CAP
1 *585:Y 4.96e-05
2 *583:A 4.96e-05

*RES
1 *585:Y *583:A 0.548229
*END

*D_NET *412 0.00112207

*CONN
*I *809:D I *C 51.045 31.365 *L 0.00116 *D DFFRX2M
*I *583:Y O *C 45.715 34.645 *L 0 *D CLKINVX2M

*CAP
1 *809:D 5.60308e-05
2 *583:Y 5.60308e-05
3 *412:3 4.5849e-05
4 *412:4 0.00031166
5 *412:5 0.000170423
6 *412:6 0.000170423
7 *412:7 0.00031166

*RES
1 *412:5 *809:D 1.02
2 *412:5 *412:6 0.717496
3 *412:7 *412:6 1.02
4 *412:4 *412:7 1.86549997
5 *412:3 *412:4 1.02
6 *412:3 *583:Y 1.02
7 *412:2 *412:3 0.204267
*END

*D_NET *413 0.000912999

*CONN
*I *818:QN O *C 52.275 19.475 *L 0 *D DFFRX1M
*I *534:A I *C 54.325 17.015 *L 0.00166 *D BUFX2M

*CAP
1 *818:QN 5.60324e-05
2 *534:A 5.60324e-05
3 *413:2 9.65915e-05
4 *413:3 0.000225257
5 *413:4 0.00017521
6 *413:5 0.00030388

*RES
1 *413:4 *534:A 1.01999998
2 *413:4 *413:5 0.573999
3 *413:2 *818:QN 1.01999998
4 *413:3 *413:5 0.717499
5 *413:3 *413:2 0.286999
*END

*D_NET *414 0.000907337

*CONN
*I *819:Y O *C 35.875 57.605 *L 0 *D OR2X1M
*I *582:D I *C 38.335 53.915 *L 0.00108 *D DFFSQX1M

*CAP
1 *819:Y 5.60282e-05
2 *582:D 5.60282e-05
3 *414:2 0.00032405
4 *414:3 0.000164821
5 *414:4 7.35918e-05
6 *414:5 0.000232821

*RES
1 *414:4 *582:D 1.01999998
2 *414:4 *414:5 0.286999
3 *414:3 *819:Y 1.01999998
4 *414:2 *414:5 0.860999
5 *414:2 *414:3 0.573999
*END

*D_NET *415 0.00141571

*CONN
*I *820:Y O *C 36.285 35.055 *L 0 *D OR2X2M
*I *658:A1N I *C 31.365 34.645 *L 0.00131 *D OAI2BB1X2M
*I *591:A0N I *C 37.515 34.235 *L 0.00304 *D AOI2BB2X4M

*CAP
1 *820:Y 5.60321e-05
2 *658:A1N 5.60321e-05
3 *591:A0N 5.60321e-05
4 *415:3 5.20265e-05
5 *415:4 5.20265e-05
6 *415:5 0.0005188
7 *415:6 0.000412942
8 *415:10 4.58517e-05
9 *415:11 4.58517e-05
10 *415:12 0.000120123

*RES
1 *415:4 *591:A0N 1.01999
2 *415:9 *415:4 0.0675284
3 *415:4 *415:3 0.143491
4 *415:12 *415:3 1.01999
5 *415:8 *415:11 0.204267
6 *415:11 *820:Y 1.01999
7 *415:5 *415:12 0.4305
8 *415:5 *415:11 1.01999
9 *415:6 *415:5 1.722
10 *415:10 *658:A1N 1.01999
11 *415:10 *415:6 1.01999
12 *415:7 *415:10 0.0349991
*END

*D_NET *416 0.0007697

*CONN
*I *821:Y O *C 51.455 25.215 *L 0 *D NOR2BX4M
*I *505:A I *C 55.145 25.625 *L 0.00276 *D BUFX4M

*CAP
1 *821:Y 5.60284e-05
2 *505:A 5.60284e-05
3 *416:4 4.58512e-05
4 *416:5 0.00028297
5 *416:6 4.58512e-05
6 *416:7 0.00028297

*RES
1 *416:6 *505:A 1.02
2 *416:3 *416:6 0.20428
3 *416:7 *416:6 1.02
4 *416:5 *416:7 1.29149997
5 *416:4 *416:5 1.02
6 *416:4 *821:Y 1.02
7 *416:2 *416:4 0.20428
*END

*D_NET *417 0.000733382

*CONN
*I *822:Y O *C 68.675 19.065 *L 0 *D XNOR3X2M
*I *519:A I *C 68.265 17.015 *L 0.0017 *D CLKBUFX2M

*CAP
1 *822:Y 5.60304e-05
2 *519:A 5.60304e-05
3 *417:2 0.000197911
4 *417:3 0.00022827
5 *417:4 5.20317e-05
6 *417:5 5.94613e-05
7 *417:6 8.3652e-05

*RES
1 *417:4 *822:Y 1.01999998
2 *417:5 *417:4 0.1435
3 *417:5 *417:2 0.1435
4 *417:3 *417:2 0.573999
5 *417:6 *417:3 0.286999
6 *519:A *417:6 1.01999998
*END

*D_NET *418 0.000583342

*CONN
*I *823:Y O *C 37.105 17.835 *L 0 *D AO2B2X2M
*I *807:D I *C 35.875 14.145 *L 0.00116 *D DFFRX2M

*CAP
1 *823:Y 5.60295e-05
2 *807:D 5.60295e-05
3 *418:2 9.40204e-05
4 *418:3 0.00016205
5 *418:4 0.00014162
6 *418:5 7.35883e-05

*RES
1 *418:5 *823:Y 1.01999998
2 *418:4 *418:5 0.286999
3 *418:3 *418:4 0.430499
4 *418:2 *418:3 0.430499
5 *807:D *418:2 1.01999998
*END

*D_NET *419 0.000404761

*CONN
*I *824:Y O *C 60.475 43.255 *L 0 *D XOR3X1M
*I *432:A I *C 59.245 42.845 *L 0.00166 *D BUFX2M

*CAP
1 *824:Y 5.60304e-05
2 *432:A 5.60304e-05
3 *419:2 0.00011264
4 *419:3 4.44905e-05
5 *419:4 3.37104e-05
6 *419:5 0.00010186

*RES
1 *419:4 *824:Y 1.01999998
2 *419:3 *432:A 1.01999998
3 *419:4 *419:5 0.0717499
4 *419:2 *419:3 0.1435
5 *419:2 *419:5 0.430499
*END

*D_NET *420 0.000586829

*CONN
*I *825:Y O *C 51.865 59.245 *L 0 *D AO21X2M
*I *655:C I *C 51.045 56.375 *L 0.00204 *D AND4X2M

*CAP
1 *825:Y 5.60306e-05
2 *655:C 6.08508e-05
3 *420:2 9.29904e-05
4 *420:3 0.00018848
5 *420:4 0.00018848

*RES
1 *420:4 *825:Y 1.01999998
2 *420:3 *420:4 1.0045
3 *420:2 *420:3 1.01999998
4 *655:C *420:2 0.548225
*END

*D_NET *421 0.00060025

*CONN
*I *826:Y O *C 39.975 63.345 *L 0 *D OAI21BX4M
*I *459:A I *C 42.435 62.935 *L 0.00166 *D BUFX2M

*CAP
1 *826:Y 5.60302e-05
2 *459:A 5.60302e-05
3 *421:2 5.0391e-05
4 *421:3 5.0391e-05
5 *421:4 0.00017078
6 *421:5 0.00017078
7 *421:8 4.58488e-05

*RES
1 *421:2 *459:A 1.01999998
2 *421:7 *421:2 0.0350034
3 *421:3 *421:2 0.1435
4 *421:4 *421:3 1.01999998
5 *421:5 *421:4 0.860999
6 *421:8 *421:5 1.01999998
7 *421:8 *826:Y 1.01999998
8 *421:6 *421:8 0.204277
*END

*D_NET *422 0.000737884

*CONN
*I *629:Q O *C 51.865 42.025 *L 0 *D SDFFRQX2M
*I *533:A I *C 54.735 45.715 *L 0.0017 *D CLKBUFX2M

*CAP
1 *629:Q 5.60282e-05
2 *533:A 5.576e-05
3 *422:2 0.000145129
4 *422:3 4.66178e-05
5 *422:4 0.00022248
6 *422:5 8.78989e-05
7 *422:6 0.000123969

*RES
1 *422:5 *533:A 0.822338
2 *422:6 *422:5 1.01999998
3 *422:4 *422:6 0.717499
4 *422:2 *422:4 0.573999
5 *422:3 *422:2 0.1435
6 *629:Q *422:3 1.01999998
*END

*D_NET *423 0.000696709

*CONN
*I *795:Q O *C 65.395 53.505 *L 0 *D DFFSQX1M
*I *779:D I *C 63.345 51.455 *L 0.00109 *D DFFSQX2M

*CAP
1 *795:Q 5.60307e-05
2 *779:D 5.0859e-05
3 *423:2 8.3e-05
4 *423:3 0.000138639
5 *423:4 0.00020679
6 *423:5 0.000114769
7 *423:6 4.66212e-05

*RES
1 *423:6 *795:Q 1.01999998
2 *423:5 *423:6 0.1435
3 *423:4 *423:5 0.430499
4 *423:3 *423:4 0.573999
5 *423:2 *423:3 1.01999998
6 *779:D *423:2 0.548225
*END

*D_NET *424 0.00116175

*CONN
*I *779:Q O *C 55.145 52.275 *L 0 *D DFFSQX2M
*I *532:A I *C 55.965 42.845 *L 0.00499 *D BUFX8M

*CAP
1 *779:Q 5.60316e-05
2 *532:A 4.95961e-05
3 *424:2 8.17439e-05
4 *424:3 0.0003916
5 *424:4 0.0003916
6 *424:4 *145:12 9.559e-05
7 *424:3 *145:13 9.55899968e-05

*RES
1 *424:4 *779:Q 1.01998
2 *424:3 *424:4 2.72650003
3 *424:2 *532:A 0.548245
4 *424:2 *424:3 1.01998
*END

*D_NET *425 0.00166985

*CONN
*I *643:A0N I *C 29.725 60.885 *L 0.00107 *D OAI2BB1X1M
*I *602:Q O *C 28.495 59.245 *L 0 *D SDFFRQX2M
*I *602:SI I *C 19.885 60.065 *L 0.000896 *D SDFFRQX2M

*CAP
1 *643:A0N 8.52183e-05
2 *602:Q 5.30734e-05
3 *602:SI 5.60235e-05
4 *425:4 6.60521e-05
5 *425:5 6.60521e-05
6 *425:6 0.00064879
7 *425:7 4.58464e-05
8 *425:8 0.00064879

*RES
1 *425:4 *602:SI 1.02002
2 *425:4 *425:5 0.287011
3 *425:6 *425:5 1.02002
4 *425:6 *425:8 3.30049992
5 *602:Q *643:A0N 0.548237
6 *425:7 *425:8 1.02002
7 *425:7 *643:A0N 1.02002
8 *425:3 *425:7 0.204267
*END

